Kremer-Grest melt, 20 chains x 100 beads, rho sigma^3 = 0.85, reduced units (sigma = 1): built by CAPS, pushed off and run 200 tau in LAMMPS (CAPS primitive-path reference)

2000 atoms
1 atom types
1980 bonds
1 bond types

0 13.300573 xlo xhi
0 13.300573 ylo yhi
0 13.300573 zlo zhi

Masses

1 1

Atoms # angle

493 5 1 0.90509 0.03540 13.08064 0 1 -1
13 1 1 3.54854 0.65898 1.32866 0 0 0
89 1 1 5.15061 1.06970 13.16309 0 0 0
1581 16 1 6.13101 0.60881 0.36856 0 1 1
599 6 1 7.88536 1.25712 12.84438 1 0 -1
359 4 1 8.85143 2.23071 0.08581 -1 0 0
501 6 1 10.08737 0.98300 0.23730 -1 0 0
505 6 1 12.47779 1.30976 13.12905 -1 0 -1
463 5 1 2.96948 1.33933 12.66208 0 1 -1
464 5 1 2.53867 1.75291 0.10946 0 1 0
465 5 1 2.65620 2.07282 1.02456 0 1 0
90 1 1 5.55879 1.50226 0.72432 0 0 1
1813 19 1 7.59963 1.43000 0.75260 0 0 0
1582 16 1 7.02045 0.59029 0.82034 0 1 1
1817 19 1 7.97206 2.93201 0.44945 0 0 0
357 4 1 9.39933 3.02728 12.57859 -1 0 -1
1261 13 1 10.60143 2.17587 0.89385 -1 0 0
91 1 1 5.27931 2.18301 0.08796 0 0 1
1815 19 1 6.20701 2.54215 0.41004 0 0 0
1816 19 1 7.06318 2.64275 0.70200 0 0 0
356 4 1 9.74504 3.66482 13.21184 -1 0 -1
1260 13 1 10.91377 2.13540 13.29123 -1 0 -1
507 6 1 12.96752 2.59418 0.48244 -1 0 0
509 6 1 0.59631 3.50276 12.78542 0 0 -1
508 6 1 0.63102 2.82939 0.20603 0 0 0
510 6 1 1.15194 2.72601 12.56511 0 0 -1
97 1 1 2.84238 3.52561 0.14734 0 0 1
92 1 1 5.28288 3.10901 13.13996 0 0 0
1236 13 1 6.65345 4.61291 0.25417 0 0 0
1210 13 1 8.71902 3.63588 0.16667 0 0 0
355 4 1 10.61030 3.31211 0.07705 -1 0 0
516 6 1 1.11635 3.68132 0.55404 0 0 0
28 1 1 2.69965 4.67210 0.54415 0 0 0
94 1 1 4.28588 3.32065 0.74240 0 0 1
1237 13 1 6.61711 4.92075 12.63188 0 0 -1
1214 13 1 8.16594 4.85619 0.07354 0 0 0
1515 16 1 11.74554 4.36871 0.58174 0 0 1
1678 17 1 0.18405 4.39424 13.12486 -1 0 -1
517 6 1 0.60770 4.28441 1.01945 0 0 0
671 7 1 4.68967 4.66762 0.85558 0 0 1
1946 20 1 6.08144 3.65787 0.14929 0 0 1
1212 13 1 8.04887 4.68958 1.22844 0 0 0
1516 16 1 10.78961 4.34806 0.33915 0 0 1
1676 17 1 13.24756 3.53562 0.72141 -2 0 0
1677 17 1 12.94176 3.61125 13.08473 -2 0 -1
1696 17 1 0.00632 5.47870 12.89177 -1 0 -1
1669 17 1 2.12726 4.68224 1.78319 -1 0 0
672 7 1 3.81729 4.36698 0.62618 0 0 1
1242 13 1 6.06762 5.67045 0.84317 0 0 0
1952 20 1 7.95639 5.69897 0.67243 0 0 1
1953 20 1 8.68315 6.02804 0.01388 0 0 1
1517 16 1 10.40994 4.98403 13.02477 0 0 0
676 7 1 3.67257 5.43602 1.00660 0 0 1
1243 13 1 5.48504 6.39472 0.53535 0 0 0
1963 20 1 5.76264 7.05436 1.43042 0 0 1
1960 20 1 7.57869 6.74538 0.77774 0 0 1
1695 17 1 13.12487 6.06797 0.29355 -2 0 0
1692 17 1 0.18399 7.04887 1.71945 -1 0 0
1543 16 1 2.66502 7.66047 12.86778 1 0 0
1965 20 1 4.46957 7.99803 0.59905 0 0 1
1964 20 1 4.96956 7.31375 1.06448 0 0 1
1961 20 1 7.24238 6.86808 1.66121 0 0 1
885 9 1 10.78668 6.59200 1.43753 0 -1 0
1689 17 1 11.66888 7.34782 0.43172 -2 0 0
1690 17 1 12.41743 7.95706 0.57463 -2 0 0
218 3 1 0.74316 7.58351 0.78429 1 0 0
1542 16 1 1.94294 8.11506 12.42717 1 0 0
646 7 1 3.53252 8.20467 13.24035 0 0 0
683 7 1 3.46995 6.87904 0.53247 0 0 1
1966 20 1 3.90552 8.41950 1.24090 0 0 1
652 7 1 6.90059 7.81122 1.01497 0 0 1
1184 12 1 8.21974 7.69382 0.81709 0 0 0
428 5 1 8.78598 6.93584 0.57198 0 0 0
886 9 1 10.41704 7.45523 1.05895 0 -1 0
1151 12 1 12.09104 8.11387 1.68153 0 0 0
219 3 1 1.43182 8.01136 0.17255 1 0 0
220 3 1 2.22062 8.58170 0.06653 1 0 0
1967 20 1 4.88147 8.64581 1.37550 0 0 1
429 5 1 9.39297 6.94332 13.17206 0 0 -1
736 8 1 12.39288 8.88516 1.06874 0 0 0
217 3 1 0.35476 8.39916 0.69923 1 0 0
645 7 1 3.02157 7.93351 0.68220 0 0 1
1889 19 1 5.50180 10.35206 1.22644 1 -1 0
435 5 1 5.66487 8.48647 0.76217 0 0 0
1183 12 1 7.85675 8.36837 0.32229 0 0 0
890 9 1 9.05760 8.81698 0.66026 0 -1 0
734 8 1 10.71716 8.89261 0.29429 0 0 0
735 8 1 11.69451 8.94459 0.48034 0 0 0
642 7 1 2.46872 9.76452 0.67177 0 0 1
1886 19 1 3.59098 10.24443 1.01815 1 -1 0
1888 19 1 5.02692 9.80965 0.63301 1 -1 0
1890 19 1 6.30702 10.24322 1.72444 1 -1 0
1181 12 1 7.66590 9.82549 1.10215 0 0 0
641 7 1 1.74864 9.93196 0.07971 0 0 1
446 5 1 4.94424 11.45292 1.70555 0 0 0
1895 19 1 7.07345 12.05714 0.05605 1 -1 0
1178 12 1 8.55640 10.29925 0.84736 0 0 0
732 8 1 11.24382 9.82765 0.02741 0 0 0
731 8 1 11.64644 10.17371 12.51293 0 0 -1
1146 12 1 11.74354 10.26219 1.08451 0 0 0
742 8 1 0.29447 9.61405 0.47689 1 0 0
483 5 1 0.41452 11.30875 12.46887 0 0 -1
1873 19 1 1.90769 10.91903 12.97437 1 -1 -1
448 5 1 4.50225 11.27876 0.22654 0 0 0
85 1 1 5.40168 12.65970 11.40440 0 -1 0
1589 16 1 8.49170 11.54214 0.62512 0 0 1
1591 16 1 9.48869 10.85941 0.69628 0 0 1
1593 16 1 10.23925 10.84018 0.07539 0 0 1
1597 16 1 10.14611 12.84015 12.69523 0 0 0
1599 16 1 11.93455 12.36346 12.96904 0 0 0
1775 18 1 3.31065 13.15846 12.15090 -1 -1 -1
86 1 1 5.68796 0.11903 10.91573 0 0 0
591 6 1 4.61952 12.61359 13.05084 1 -1 -1
1594 16 1 10.20249 11.61578 12.80361 0 0 0
1598 16 1 10.97681 12.34735 12.75813 0 0 0
474 5 1 2.29544 12.70446 1.03746 0 0 0
596 6 1 7.77609 13.16071 0.28642 1 -1 0
598 6 1 7.31444 0.42405 12.72619 1 0 -1
725 8 1 9.62261 0.09051 0.53187 0 1 0
1595 16 1 10.05712 11.92080 11.92342 0 0 0
502 6 1 11.06684 1.06923 0.39983 -1 0 0
503 6 1 11.49194 0.26236 0.65804 -1 0 0
498 5 1 12.68380 11.39569 0.12057 -1 0 0
494 5 1 0.14704 0.65532 12.85554 0 1 -1
12 1 1 2.70284 0.83597 0.88302 0 0 0
470 5 1 3.82369 12.85501 2.23032 0 0 0
1583 16 1 7.12378 0.09440 1.71349 0 1 1
724 8 1 9.61046 0.83650 1.13823 0 1 0
1264 13 1 12.46485 1.59062 1.73978 -1 0 0
504 6 1 12.31487 0.74751 0.57721 -1 0 0
348 4 1 0.22887 1.42988 0.78931 0 0 0
466 5 1 3.54277 1.70443 0.99941 0 1 0
588 6 1 4.90975 13.07802 1.42473 1 -1 0
1812 19 1 7.28214 1.36000 1.64813 0 0 0
360 4 1 8.70470 1.40025 0.34373 -1 0 0
361 4 1 8.50331 2.02872 1.04717 -1 0 0
1263 13 1 11.58326 1.52995 1.29044 -1 0 0
511 6 1 1.94381 3.15991 12.75359 0 0 -1
95 1 1 4.19680 2.49099 0.22546 0 0 1
1814 19 1 6.67538 1.68553 0.59894 0 0 0
364 4 1 7.77273 2.60108 1.59395 -1 0 0
1262 13 1 11.53316 2.45521 1.01662 -1 0 0
347 4 1 0.36119 0.47743 0.62319 0 0 0
512 6 1 1.97779 2.92297 0.35672 0 0 0
93 1 1 5.28373 3.16535 0.82194 0 0 1
365 4 1 8.10151 3.46328 1.88770 -1 0 0
1209 13 1 9.30384 4.15303 0.90112 0 0 0
1208 13 1 9.20351 3.31278 1.42499 0 0 0
354 4 1 11.27459 3.45136 0.75762 -1 0 0
353 4 1 12.22440 3.37083 0.83688 -1 0 0
515 6 1 0.97580 3.45680 1.47626 0 0 0
29 1 1 2.23299 3.91984 0.96257 0 0 0
1947 20 1 6.57213 3.87201 0.97631 0 0 1
1211 13 1 8.24993 3.84056 0.94536 0 0 0
1207 13 1 10.10024 3.47795 1.15645 0 0 0
1674 17 1 12.15246 4.50649 1.75898 -2 0 0
1673 17 1 12.88303 4.16250 2.33719 -2 0 0
518 6 1 0.99965 4.42637 1.87201 0 0 0
670 7 1 5.73574 4.66026 0.82143 0 0 1
668 7 1 5.72004 5.86236 1.71169 0 0 1
1213 13 1 8.82603 4.97412 0.74479 0 0 0
1206 13 1 10.19686 4.35974 1.52186 0 0 0
1675 17 1 12.66647 4.25126 1.02448 -2 0 0
1670 17 1 1.56421 5.03826 2.50180 -1 0 0
677 7 1 3.63729 6.29247 1.41233 0 0 1
678 7 1 3.94644 5.71964 2.17530 0 0 1
673 7 1 3.60009 5.01939 13.24015 0 0 0
667 7 1 5.57471 6.65029 2.34990 0 0 1
1951 20 1 7.15369 5.40339 0.96991 0 0 1
880 9 1 12.08685 5.45418 0.70970 0 -1 0
1697 17 1 13.11357 5.09412 0.42716 -2 0 0
1668 17 1 2.82675 5.31610 1.65883 -1 0 0
674 7 1 3.51009 5.93201 13.03281 0 0 0
681 7 1 4.64929 6.37614 1.39202 0 0 1
426 5 1 8.86968 5.52751 1.61212 0 0 0
883 9 1 10.36671 5.33232 1.17647 0 -1 0
879 9 1 11.91936 6.29697 0.36864 0 -1 0
1667 17 1 2.11643 5.59565 1.04053 -1 0 0
675 7 1 2.94758 5.66477 0.41154 0 0 1
1962 20 1 6.49272 7.37013 1.97313 0 0 1
427 5 1 9.18708 6.29301 1.17050 0 0 0
884 9 1 10.17031 6.18930 0.73006 0 -1 0
1152 12 1 11.40658 7.50527 1.59376 0 0 0
1691 17 1 12.78795 7.37282 1.21720 -2 0 0
749 8 1 0.31045 7.37213 2.67550 1 0 0
1664 17 1 3.65042 6.72235 2.30652 -1 0 0
682 7 1 4.28855 6.32781 0.50739 0 0 1
653 7 1 6.88903 8.70031 1.22827 0 0 1
658 7 1 9.77879 6.77198 1.83283 0 0 1
1666 17 1 2.28448 6.55960 1.27135 -1 0 0
1665 17 1 2.94797 6.98799 1.74053 -1 0 0
1968 20 1 5.65293 9.21068 1.45740 0 0 1
436 5 1 5.86284 8.15662 1.61500 0 0 0
657 7 1 9.05412 7.38533 1.63829 0 0 1
1156 12 1 9.51811 8.51373 1.92723 0 0 0
1150 12 1 12.45147 8.34104 2.50195 0 0 0
1149 12 1 12.56960 9.16973 1.99020 0 0 0
221 3 1 1.77321 8.79057 0.85826 1 0 0
1883 19 1 3.21936 8.88949 2.32909 1 -1 0
1969 20 1 5.62840 9.05734 2.37391 0 0 1
656 7 1 8.65357 8.22567 1.56609 0 0 1
891 9 1 9.43163 9.67873 0.93270 0 -1 0
1148 12 1 12.69884 10.06563 2.41681 0 0 0
744 8 1 0.55781 9.93883 1.84807 1 0 0
745 8 1 0.99331 9.43228 2.53294 1 0 0
223 3 1 1.46357 10.19440 1.15362 1 0 0
1887 19 1 4.17856 10.31795 0.30874 1 -1 0
1891 19 1 7.16717 10.28547 2.10182 1 -1 0
1180 12 1 6.95448 10.45746 0.87345 0 0 0
1177 12 1 8.66868 10.98620 1.50185 0 0 0
1176 12 1 9.51567 10.80363 1.76953 0 0 0
733 8 1 10.94782 9.56240 0.89486 0 0 0
1147 12 1 11.82124 10.09838 2.01087 0 0 0
1885 19 1 4.34947 10.08663 1.66895 1 -1 0
447 5 1 4.38122 10.93219 1.12918 0 0 0
445 5 1 5.13723 11.30556 2.60587 0 0 0
1894 19 1 6.99630 11.56637 0.88105 1 -1 0
1179 12 1 7.76440 10.66684 0.40678 0 0 0
729 8 1 11.11356 11.49039 0.35501 0 0 0
730 8 1 11.65766 10.85818 13.19806 0 0 -1
743 8 1 13.15453 9.67885 1.31125 0 0 0
1874 19 1 2.30237 10.76997 0.57263 1 -1 0
592 6 1 5.02232 12.27060 0.64214 1 -1 0
727 8 1 10.85626 12.90449 1.22434 0 0 0
728 8 1 11.21088 12.01968 1.14472 0 0 0
1145 12 1 12.49305 10.68280 1.59682 0 0 0
496 5 1 0.06060 12.78972 0.11644 0 0 0
495 5 1 12.72027 0.03823 12.89177 -1 1 -1
482 5 1 1.02286 11.38342 13.19130 0 0 -1
473 5 1 3.01909 12.29080 0.42943 0 0 0
472 5 1 3.90555 12.26350 0.72298 0 0 0
590 6 1 5.32446 13.07878 0.12856 1 -1 0
1588 16 1 8.56275 12.25337 1.32225 0 0 1
1587 16 1 9.48821 12.38575 1.64273 0 0 1
726 8 1 10.21122 12.53606 0.57003 0 0 0
1596 16 1 9.44305 12.24448 12.56452 0 0 0
497 5 1 13.04640 12.06873 12.80512 -1 0 -1
475 5 1 3.09255 12.32440 1.56833 0 0 0
1586 16 1 9.01059 13.22418 1.52913 0 0 1
344 4 1 1.18121 13.20230 1.25383 0 -1 0
469 5 1 4.28334 0.39698 2.22717 0 1 0
722 8 1 10.58142 0.98111 2.20474 0 1 0
1079 11 1 12.04220 12.80081 1.22687 0 0 0
345 4 1 0.36841 12.76567 1.26865 0 -1 0
343 4 1 1.74912 0.55138 0.79301 0 0 0
6 1 1 4.34303 1.52282 2.44641 0 0 0
467 5 1 4.50147 1.56385 0.82733 0 1 0
587 6 1 5.83872 13.15063 1.29704 1 -1 0
1811 19 1 7.66237 1.13434 2.50527 0 0 0
1810 19 1 8.28864 0.96397 1.73376 0 0 0
362 4 1 9.31648 2.12544 1.62155 -1 0 0
720 8 1 11.52950 2.09687 2.60658 0 1 0
349 4 1 0.90323 2.11611 0.89691 0 0 0
342 4 1 1.56689 1.20039 1.43494 0 0 0
96 1 1 3.33305 2.70983 0.42752 0 0 1
51 1 1 6.16503 3.13349 1.73184 0 0 0
363 4 1 8.53061 2.33136 2.12511 -1 0 0
718 8 1 9.83039 1.82568 2.56342 0 1 0
346 4 1 12.94164 0.03688 1.04125 -1 0 0
513 6 1 1.74125 2.65712 1.26853 0 0 0
514 6 1 1.63263 3.15470 2.06366 0 0 0
49 1 1 5.11239 3.02997 1.95811 0 0 0
50 1 1 5.58697 3.76745 2.14358 0 0 0
52 1 1 5.97259 2.19878 1.48206 0 0 0
366 4 1 7.87678 2.96628 2.64741 -1 0 0
1202 13 1 10.00964 2.85538 2.10003 0 0 0
352 4 1 12.43935 2.87858 1.56625 -1 0 0
350 4 1 0.92565 2.49626 1.83078 0 0 0
1672 17 1 0.33809 4.74743 2.60183 -1 0 0
31 1 1 2.62044 2.46922 1.98147 0 0 0
30 1 1 2.77653 3.11204 1.22389 0 0 0
669 7 1 5.98867 4.92375 1.71294 0 0 1
1948 20 1 7.07808 3.59985 1.78998 0 0 1
1993 20 1 9.84050 3.76981 2.41869 0 1 1
1203 13 1 10.85289 2.95906 1.61677 0 0 0
1274 13 1 11.71255 4.05230 3.13138 -1 0 0
1671 17 1 0.78942 5.52640 2.29919 -1 0 0
519 6 1 1.28732 4.07984 2.74671 0 0 0
38 1 1 3.22256 4.16202 1.65657 0 0 0
378 4 1 6.53272 4.81540 3.33537 -1 0 0
1949 20 1 6.74696 4.23157 2.47398 0 0 1
1992 20 1 10.26441 4.21298 3.13935 0 1 1
1205 13 1 11.10912 4.12449 1.53930 0 0 0
1204 13 1 10.91420 3.63483 2.34559 0 0 0
1699 17 1 0.59897 5.33897 1.17667 -1 0 0
520 6 1 1.88589 4.42975 3.32827 0 0 0
39 1 1 3.58976 4.65440 2.34491 0 0 0
665 7 1 6.39697 6.12961 3.55145 0 0 1
666 7 1 5.49900 6.14790 3.19401 0 0 1
1950 20 1 7.03754 4.66422 1.61437 0 0 1
425 5 1 9.67458 5.38871 2.13076 0 0 0
881 9 1 11.51292 5.48902 1.52302 0 -1 0
1698 17 1 0.75413 5.05487 0.28511 -1 0 0
751 8 1 1.78429 6.86514 2.32890 1 0 0
679 7 1 4.81591 5.29550 2.38025 0 0 1
662 7 1 7.14538 5.68563 2.04980 0 0 1
882 9 1 10.75172 5.35416 2.07396 0 -1 0
878 9 1 11.91993 6.50289 1.24694 0 -1 0
873 9 1 12.85716 6.60150 2.83305 0 -1 0
750 8 1 0.86636 6.60251 2.52713 1 0 0
680 7 1 4.70954 5.43915 1.41798 0 0 1
664 7 1 6.67891 6.49834 2.72381 0 0 1
661 7 1 7.97595 6.00350 1.57878 0 0 1
660 7 1 8.30017 6.76773 2.04336 0 0 1
1301 14 1 1.64009 7.89521 1.28280 0 0 0
1663 17 1 4.14001 7.27687 1.66113 -1 0 0
1660 17 1 4.75653 7.16270 2.58263 -1 0 0
1406 15 1 8.35857 8.01806 2.74542 0 0 0
659 7 1 9.07872 6.29455 2.25838 0 0 1
1155 12 1 9.96829 8.81060 1.12239 0 0 0
876 9 1 12.09677 6.16458 2.19005 0 -1 0
748 8 1 1.01384 7.82737 2.18764 1 0 0
1661 17 1 4.46913 8.14032 2.68113 -1 0 0
437 5 1 5.55548 8.01626 2.48272 0 0 0
654 7 1 7.55618 8.30568 1.76690 0 0 1
1158 12 1 10.28979 9.12482 2.85455 0 0 0
746 8 1 0.07183 9.30444 2.77596 1 0 0
222 3 1 1.10237 9.35929 1.12650 1 0 0
1881 19 1 4.30272 8.87765 3.47771 1 -1 0
655 7 1 8.08042 8.88915 1.21239 0 0 1
892 9 1 9.03801 9.70633 1.80714 0 -1 0
1157 12 1 9.35168 9.18805 2.57653 0 0 0
1172 12 1 10.98443 9.29830 1.92142 0 0 0
1171 12 1 11.63141 8.93916 2.49613 0 0 0
747 8 1 0.34333 8.42023 2.64130 1 0 0
1884 19 1 3.51754 9.68642 1.92996 1 -1 0
1970 20 1 6.55499 9.22230 2.10746 0 0 1
1892 19 1 6.42794 10.87484 2.42176 1 -1 0
1070 11 1 11.85367 10.47388 2.98706 0 0 0
480 5 1 1.30383 12.01778 0.71716 0 0 0
224 3 1 2.21894 9.78302 1.67659 1 0 0
1893 19 1 6.47348 11.39934 1.63344 1 -1 0
702 8 1 9.79207 11.62914 2.65625 0 0 0
1175 12 1 9.81598 10.55516 2.65040 0 0 0
1071 11 1 12.65336 10.81941 3.44331 0 0 0
481 5 1 0.38640 11.76805 0.50478 0 0 0
1875 19 1 2.26989 11.68029 0.91830 1 -1 0
1876 19 1 3.23267 11.34631 0.77778 1 -1 0
444 5 1 5.00966 10.40196 2.77715 0 0 0
593 6 1 5.72573 12.19038 1.34966 1 -1 0
1141 12 1 10.81663 11.95785 2.89946 0 0 0
1144 12 1 11.92094 11.24380 1.10875 0 0 0
479 5 1 1.19060 11.12902 1.12523 0 0 0
594 6 1 6.62257 12.52080 1.66821 1 -1 0
595 6 1 7.17675 12.62381 0.88062 1 -1 0
1140 12 1 10.34694 12.60961 2.43912 0 0 0
1077 11 1 11.39668 12.56536 2.07822 0 0 0
478 5 1 1.79802 11.15563 1.92596 0 0 0
476 5 1 2.65163 11.90217 2.24441 0 0 0
803 9 1 3.42557 11.85449 3.20087 1 -1 0
471 5 1 4.22022 12.30986 1.59501 0 0 0
589 6 1 4.52965 13.22090 0.59400 1 -1 0
1584 16 1 8.01971 0.00366 1.36430 0 1 1
1585 16 1 8.66811 0.39076 0.78390 0 1 1
705 8 1 9.51648 0.06806 2.38992 0 1 0
723 8 1 10.50418 1.08653 1.30525 0 1 0
1078 11 1 11.68122 0.14964 1.81555 0 1 0
1080 11 1 12.73002 12.28099 0.91155 0 0 0
10 1 1 2.60561 12.99493 2.35677 0 -1 0
11 1 1 2.35424 0.34334 1.66368 0 0 0
804 9 1 3.52683 12.28669 4.07378 1 -1 0
3 1 1 5.27947 12.60545 2.67640 0 -1 0
111 2 1 6.21752 1.43962 3.17791 0 1 0
1265 13 1 12.84607 0.82906 2.15687 -1 0 0
335 4 1 0.39172 0.07622 2.38133 0 0 0
336 4 1 0.51303 0.68253 1.62474 0 0 0
341 4 1 2.25100 1.15779 2.22103 0 0 0
5 1 1 4.79655 0.98518 3.09384 0 0 0
468 5 1 4.69158 1.00814 1.60944 0 1 0
586 6 1 5.86407 0.78528 1.55287 1 0 0
1809 19 1 9.05223 1.27369 2.21221 0 0 0
721 8 1 11.48985 1.22505 2.28426 0 1 0
719 8 1 10.67045 2.08405 2.12827 0 1 0
1268 13 1 12.41124 1.47421 2.88053 -1 0 0
141 2 1 2.03732 2.31817 3.22396 0 1 0
7 1 1 3.43729 1.56016 2.21851 0 0 0
48 1 1 4.37930 2.64091 1.48846 0 0 0
54 1 1 7.03111 1.98757 2.78641 0 0 0
716 8 1 9.22771 1.24705 4.28090 0 1 0
717 8 1 9.52369 1.51142 3.41337 0 1 0
351 4 1 0.04818 2.49252 1.52592 0 0 0
47 1 1 4.06655 3.52694 1.81889 0 0 0
53 1 1 6.77806 2.23086 1.94973 0 0 0
138 2 1 0.65100 2.20944 3.73468 0 1 0
143 2 1 1.24348 2.96303 3.07738 0 1 0
119 2 1 4.71695 2.83620 2.78929 0 1 0
377 4 1 7.24243 5.46490 3.25268 -1 0 0
367 4 1 7.36617 3.03557 3.43130 -1 0 0
1994 20 1 8.95051 3.60778 2.74855 0 1 1
1201 13 1 10.48779 2.89498 2.89058 0 0 0
1276 13 1 11.18901 4.70222 4.40646 -1 0 0
1277 13 1 10.45480 4.93862 3.88070 -1 0 0
1273 13 1 12.40570 3.40871 3.07952 -1 0 0
37 1 1 2.45660 3.81391 2.12320 0 0 0
379 4 1 6.24003 5.49791 2.76905 -1 0 0
373 4 1 8.40764 4.74848 3.45528 -1 0 0
1991 20 1 10.67852 3.88236 3.94622 0 1 1
1278 13 1 10.08758 5.44369 3.20889 -1 0 0
1275 13 1 11.95891 4.21489 4.08100 -1 0 0
521 6 1 1.11611 4.88375 3.64315 0 0 0
754 8 1 2.03762 5.91944 2.44856 1 0 0
753 8 1 1.50064 6.02338 1.64736 1 0 0
41 1 1 2.98726 5.59385 3.28595 0 0 0
376 4 1 7.97795 5.24060 2.66084 -1 0 0
374 4 1 7.89485 4.02904 2.99573 -1 0 0
424 5 1 9.02173 5.45466 2.82450 0 0 0
1279 13 1 9.40336 4.87114 3.57461 -1 0 0
1700 17 1 13.12295 5.05324 1.61393 -2 0 0
522 6 1 0.87973 5.83359 3.58229 0 0 0
752 8 1 1.24400 6.92933 1.55536 1 0 0
40 1 1 2.75186 4.89749 2.67779 0 0 0
1280 13 1 9.47042 5.43287 4.30007 -1 0 0
872 9 1 13.15221 5.87296 3.39005 0 -1 0
663 7 1 7.61382 6.31809 2.64672 0 0 1
421 5 1 9.11548 7.15589 2.81167 0 0 0
1154 12 1 10.51778 8.32576 1.65413 0 0 0
1153 12 1 11.14831 8.13731 0.91993 0 0 0
877 9 1 12.77256 6.15779 1.51579 0 -1 0
874 9 1 12.54745 7.32893 2.33762 0 -1 0
1306 14 1 0.64009 9.05250 3.65422 0 0 0
1659 17 1 4.45979 6.31708 2.83301 -1 0 0
1405 15 1 7.55996 7.52669 2.42758 0 0 0
1407 15 1 8.38553 8.98736 2.77079 0 0 0
1408 15 1 7.95945 9.82133 2.86182 0 0 0
875 9 1 11.69445 6.96501 2.50057 0 -1 0
1303 14 1 1.84597 8.63872 2.26757 0 0 0
1302 14 1 2.25410 7.75617 2.10689 0 0 0
1662 17 1 3.60238 7.78871 2.23008 -1 0 0
438 5 1 5.55628 8.30113 3.38541 0 0 0
1411 15 1 7.36505 8.96013 3.54234 0 0 0
1409 15 1 7.71752 9.45604 2.08363 0 0 0
1159 12 1 10.47777 8.81674 3.68702 0 0 0
1170 12 1 11.03693 8.23749 2.87178 0 0 0
1168 12 1 12.36787 9.26284 3.27520 0 0 0
227 3 1 2.15148 10.23835 3.31165 1 0 0
1882 19 1 3.38101 8.70967 3.29763 1 -1 0
1410 15 1 7.31981 8.81436 2.63503 0 0 0
1173 12 1 10.56165 10.11983 1.73449 0 0 0
1167 12 1 13.05531 9.58565 3.87195 0 0 0
226 3 1 2.49623 10.48645 2.46249 1 0 0
1880 19 1 4.24058 9.49689 2.70231 1 -1 0
1971 20 1 6.77627 9.78316 2.81818 0 0 1
1801 19 1 7.61968 11.20432 1.54572 0 -1 0
893 9 1 8.60610 10.34579 2.34173 0 -1 0
894 9 1 8.87699 9.98574 3.14288 0 -1 0
1174 12 1 10.54507 10.98910 2.05466 0 0 0
1069 11 1 11.05131 10.06857 2.72993 0 0 0
225 3 1 2.29468 9.53628 2.57663 1 0 0
1879 19 1 4.03131 10.48645 2.54937 1 -1 0
442 5 1 6.04810 9.82445 3.55101 0 0 0
1802 19 1 7.58368 11.16589 2.53398 0 -1 0
701 8 1 8.78707 11.27317 2.47887 0 0 0
1143 12 1 11.78857 11.26390 2.11238 0 0 0
1083 11 1 0.49186 11.00425 2.05357 1 0 0
1877 19 1 3.03266 10.97143 1.64025 1 -1 0
807 9 1 4.36676 11.94539 2.71157 1 -1 0
443 5 1 5.10156 9.59559 3.34556 0 0 0
895 9 1 9.01321 10.90913 3.54073 0 -1 0
1142 12 1 11.63512 11.50012 3.03517 0 0 0
1073 11 1 0.21287 11.58388 3.00153 1 0 0
1072 11 1 12.74987 11.23232 2.63000 0 0 0
1082 11 1 0.48161 11.90878 1.96641 1 0 0
477 5 1 1.79956 12.12219 1.84515 0 0 0
1 1 1 5.92514 11.10463 3.32505 0 -1 0
1804 19 1 7.42488 12.25771 3.38252 0 -1 0
703 8 1 9.28368 12.22153 3.20170 0 0 0
704 8 1 8.78099 12.73499 2.61198 0 0 0
1076 11 1 12.21702 12.18463 2.31611 0 0 0
1081 11 1 13.03882 11.59347 1.48975 0 0 0
802 9 1 2.97487 11.42039 3.97802 1 -1 0
805 9 1 4.36139 11.85920 4.25336 1 -1 0
110 2 1 6.61474 0.86624 2.51819 0 1 0
706 8 1 9.95376 0.52588 3.08521 0 1 0
1139 12 1 10.93498 0.05720 2.65507 0 1 0
1266 13 1 12.77944 0.34444 2.94951 -1 0 0
9 1 1 2.83556 0.01605 3.22111 0 0 0
4 1 1 5.22324 0.24417 2.75245 0 0 0
112 2 1 6.59427 0.57407 3.46114 0 1 0
1807 19 1 8.73384 0.77683 3.39023 0 0 0
1808 19 1 8.49306 1.54781 2.89490 0 0 0
1985 20 1 11.23754 0.00871 4.62937 0 1 1
1267 13 1 11.96746 0.71337 3.30111 -1 0 0
334 4 1 1.19570 12.90507 2.64435 0 -1 0
338 4 1 0.04829 1.22729 2.94644 0 0 0
340 4 1 1.64388 0.54243 2.54556 0 0 0
8 1 1 3.13347 0.63146 2.50042 0 0 0
117 2 1 4.46984 1.54802 4.06829 0 1 0
55 1 1 7.36863 1.60244 3.63953 0 0 0
1269 13 1 12.91612 2.22435 2.46965 -1 0 0
337 4 1 0.31224 1.54543 2.03063 0 0 0
140 2 1 1.61902 1.93301 2.45069 0 1 0
175 2 1 3.88951 2.40627 3.77676 0 1 0
585 6 1 5.53897 1.31910 2.30205 1 0 0
584 6 1 5.52235 2.27718 2.51632 1 0 0
715 8 1 9.28265 2.28287 4.16904 0 1 0
139 2 1 0.74368 2.13642 2.81208 0 1 0
142 2 1 2.15263 3.27117 3.01664 0 1 0
32 1 1 3.51104 2.71645 2.14440 0 0 0
118 2 1 4.74115 2.02511 3.27272 0 1 0
1996 20 1 8.45920 2.80988 3.54576 0 1 1
1995 20 1 9.29216 2.79606 3.14170 0 1 1
1988 20 1 11.05795 1.48467 3.27859 0 1 1
1272 13 1 11.51899 3.05125 3.01835 -1 0 0
1270 13 1 12.78475 2.45107 3.40344 -1 0 0
137 2 1 0.50159 2.87880 4.44130 0 1 0
46 1 1 3.98958 3.45060 2.82086 0 0 0
120 2 1 4.80761 3.56166 3.45348 0 1 0
368 4 1 6.61156 3.14909 2.94114 -1 0 0
1989 20 1 10.66579 2.18482 3.70735 0 1 1
1435 15 1 0.46186 3.55661 3.64850 1 0 0
144 2 1 1.57939 2.98055 3.95326 0 1 0
35 1 1 2.90626 3.89567 3.82783 0 0 0
36 1 1 3.10123 3.84843 2.93728 0 0 0
371 4 1 6.92047 3.91352 3.75925 -1 0 0
1990 20 1 11.00053 3.02821 4.01581 0 1 1
1282 13 1 10.06481 4.87841 5.41908 -1 0 0
1441 15 1 12.34109 3.19393 4.19113 0 0 0
1436 15 1 12.97505 4.05649 3.83029 0 0 0
523 6 1 1.05871 5.59217 4.46260 0 0 0
755 8 1 2.43113 6.49261 3.06698 1 0 0
382 4 1 5.85688 5.39882 4.29099 -1 0 0
380 4 1 5.64145 4.79459 2.64247 -1 0 0
1281 13 1 10.31484 5.47933 4.66419 -1 0 0
1437 15 1 12.99596 4.93682 4.33236 0 0 0
524 6 1 1.88314 5.28892 4.79452 0 0 0
756 8 1 3.30115 6.56197 3.34278 1 0 0
381 4 1 5.36655 5.07846 3.53289 -1 0 0
375 4 1 8.47243 4.43614 2.40915 -1 0 0
422 5 1 8.25739 7.12395 3.20578 0 0 0
423 5 1 8.67581 6.25847 3.24654 0 0 0
1453 15 1 11.44221 5.17299 2.92779 0 0 0
871 9 1 0.21037 6.18114 4.21544 1 -1 0
870 9 1 0.32145 6.82739 4.86845 1 -1 0
529 6 1 2.58202 7.47334 4.29597 0 0 0
757 8 1 3.63239 6.95378 4.22520 1 0 0
1658 17 1 4.64892 6.60445 3.70267 -1 0 0
1404 15 1 6.82911 7.44453 3.09332 0 0 0
420 5 1 9.84547 7.67259 3.05273 0 0 0
1452 15 1 11.08710 5.70224 3.65862 0 0 0
1455 15 1 12.60872 4.84979 3.25202 0 0 0
1307 14 1 0.61160 8.10319 3.54530 0 0 0
1305 14 1 1.51760 8.79837 3.23552 0 0 0
530 6 1 2.93514 7.51229 3.38018 0 0 0
533 6 1 3.88633 7.70737 5.00653 0 0 0
419 5 1 10.49016 7.49843 2.39528 0 0 0
417 5 1 10.85557 6.20155 2.78396 0 0 0
1304 14 1 2.33947 8.29093 3.00545 0 0 0
532 6 1 3.96384 8.26901 4.20824 0 0 0
439 5 1 6.44956 8.37438 3.13304 0 0 0
1656 17 1 5.86491 7.80459 4.14135 -1 0 0
1412 15 1 7.54633 8.01409 3.66808 0 0 0
1160 12 1 9.61038 9.01172 4.12695 0 0 0
418 5 1 10.08699 6.72601 2.86031 0 0 0
1169 12 1 11.56940 8.74912 3.50107 0 0 0
1460 15 1 11.28552 7.80287 4.47994 0 0 0
229 3 1 3.50732 10.52444 3.76179 1 0 0
440 5 1 6.62200 8.46782 4.05552 0 0 0
1655 17 1 4.93702 8.08558 4.08391 -1 0 0
1417 15 1 8.96235 9.80791 4.75408 0 0 0
1161 12 1 9.80946 9.72151 3.59321 0 0 0
1067 11 1 11.16286 9.87138 4.53377 0 0 0
1084 11 1 1.16875 10.95105 2.72208 1 0 0
228 3 1 3.07894 9.93101 3.22559 1 0 0
441 5 1 5.96782 9.16605 4.22250 0 0 0
1973 20 1 7.38067 10.20207 4.11622 0 0 1
1068 11 1 11.21017 9.65194 3.55908 0 0 0
857 9 1 1.40373 10.39522 4.68424 1 -1 0
1878 19 1 3.61306 11.27041 2.34879 1 -1 0
808 9 1 4.15365 11.21841 3.33272 1 -1 0
1972 20 1 6.77055 10.54433 3.45305 0 0 1
1803 19 1 7.00669 11.92075 2.59039 0 -1 0
897 9 1 7.98931 10.77048 3.45876 0 -1 0
1162 12 1 10.27786 10.49424 3.86136 0 0 0
1166 12 1 12.18061 10.02551 3.93281 0 0 0
855 9 1 1.41829 11.73005 3.42568 1 -1 0
856 9 1 1.17768 11.11531 4.10529 1 -1 0
809 9 1 4.96591 10.84158 3.73828 1 -1 0
107 2 1 5.98976 12.66027 3.58895 0 0 0
896 9 1 8.37364 11.61884 3.43257 0 -1 0
806 9 1 4.96357 11.90618 3.48803 1 -1 0
108 2 1 6.67064 12.82235 2.91090 0 0 0
109 2 1 6.09720 0.04709 2.29375 0 1 0
1805 19 1 7.80669 13.00363 2.88879 0 -1 0
1983 20 1 10.09721 12.81987 3.39161 0 0 1
1075 11 1 12.71879 12.96332 2.00872 0 0 0
333 4 1 1.97774 12.49435 3.06749 0 -1 0
331 4 1 2.01633 11.69003 4.46420 0 -1 0
2 1 1 5.94678 11.94475 2.79389 0 -1 0
1806 19 1 8.43335 0.40108 2.59811 0 0 0
707 8 1 9.39727 0.15191 3.78127 0 1 0
1984 20 1 10.82374 13.24185 3.77006 0 0 1
1138 12 1 11.77573 12.91234 2.98558 0 0 0
339 4 1 0.84064 0.77912 2.97376 0 0 0
1486 15 1 2.65335 0.28307 4.31264 1 1 0
173 2 1 3.72472 1.04143 3.33464 0 1 0
115 2 1 5.72367 0.74288 4.35193 0 1 0
113 2 1 7.00526 13.10924 3.86160 0 0 0
709 8 1 9.10611 13.09827 4.85327 0 0 0
1479 15 1 13.17317 13.25213 3.89316 0 0 0
174 2 1 3.24656 1.84682 3.32740 0 1 0
116 2 1 4.78302 0.76342 4.53491 0 1 0
583 6 1 5.73244 2.37294 3.46378 1 0 0
56 1 1 7.47673 0.75201 4.06427 0 0 0
710 8 1 9.04568 0.68210 5.34018 0 1 0
1986 20 1 11.37598 0.88805 4.31546 0 1 1
1122 12 1 11.70410 1.02774 5.98942 0 1 0
1480 15 1 12.22660 0.13662 4.03683 0 1 0
129 2 1 1.82639 1.83267 4.22145 0 1 0
177 2 1 3.84384 3.03513 5.04562 0 1 0
582 6 1 6.64352 2.45385 3.77692 1 0 0
1997 20 1 8.00165 2.72142 4.41409 0 1 1
714 8 1 9.87061 3.02229 4.24454 0 1 0
1987 20 1 10.49562 0.96874 4.00147 0 1 1
1271 13 1 11.87501 2.39722 3.61759 -1 0 0
136 2 1 0.58268 3.26438 5.29491 0 1 0
130 2 1 0.92126 1.89202 4.69241 0 1 0
176 2 1 3.77066 3.29911 4.14116 0 1 0
121 2 1 5.14689 2.99837 4.15598 0 1 0
1617 17 1 11.00364 1.56322 5.26667 -1 0 0
33 1 1 3.02270 2.75416 2.92084 0 0 0
369 4 1 6.01185 3.80235 3.38816 -1 0 0
1800 18 1 8.23641 3.08912 5.43991 -1 0 -1
1616 17 1 11.54538 1.90701 4.57741 -1 0 0
1615 17 1 12.42580 2.13404 4.61844 -1 0 0
1440 15 1 12.98000 3.59424 4.79653 0 0 0
1434 15 1 0.89330 3.96070 4.38198 1 0 0
145 2 1 1.92713 3.61263 4.61029 0 1 0
34 1 1 2.89063 2.92610 3.85682 0 0 0
45 1 1 4.53004 4.16129 2.49086 0 0 0
370 4 1 6.20531 3.52931 4.24562 -1 0 0
372 4 1 7.51051 4.65327 3.85709 -1 0 0
1363 14 1 9.50176 3.83779 3.66799 -1 0 0
1284 13 1 9.44211 3.56081 5.31062 -1 0 0
525 6 1 2.64692 5.29803 4.24808 0 0 0
43 1 1 3.56359 4.83745 4.05180 0 0 0
42 1 1 3.86349 5.63354 3.66882 0 0 0
185 2 1 4.51188 4.58148 4.24920 0 1 0
383 4 1 6.85879 5.26697 4.36922 -1 0 0
1364 14 1 9.38020 4.35170 4.48843 -1 0 0
1283 13 1 10.27617 3.97826 5.25431 -1 0 0
1438 15 1 12.31169 4.99630 5.00817 0 0 0
1430 15 1 0.61635 5.77829 5.95940 1 0 0
528 6 1 2.60175 6.51619 4.56325 0 0 0
537 6 1 6.31148 6.52542 4.67061 0 0 0
1365 14 1 8.51141 4.78244 4.44797 -1 0 0
1451 15 1 11.34553 6.07955 4.52696 0 0 0
1450 15 1 10.80284 6.80166 4.68305 0 0 0
1454 15 1 12.25792 5.17151 2.40999 0 0 0
1456 15 1 12.18311 5.54919 3.84730 0 0 0
869 9 1 1.28680 6.60018 4.92644 1 -1 0
758 8 1 3.80543 6.12594 4.57506 1 0 0
536 6 1 5.37634 6.30847 4.83661 0 0 0
1402 15 1 8.15861 6.62554 4.08654 0 0 0
1401 15 1 7.92928 5.72354 3.90554 0 0 0
415 5 1 10.09077 6.63738 3.89821 0 0 0
1457 15 1 11.89926 6.41929 3.46481 0 0 0
1308 14 1 0.08936 7.33010 3.83713 0 0 0
1309 14 1 0.93044 6.86972 3.60687 0 0 0
531 6 1 3.89966 7.66914 3.43620 0 0 0
1657 17 1 5.54522 6.92970 3.91487 -1 0 0
1403 15 1 7.28187 6.71895 3.60235 0 0 0
412 5 1 9.74698 7.71176 5.38327 0 0 0
413 5 1 10.35656 8.20787 4.75442 0 0 0
414 5 1 10.32783 7.58927 4.04344 0 0 0
416 5 1 10.90741 6.80867 3.49624 0 0 0
1458 15 1 12.25051 7.04020 4.23397 0 0 0
813 9 1 4.18349 8.62360 5.81422 1 -1 0
1413 15 1 8.33937 7.73588 4.12556 0 0 0
1414 15 1 8.91436 8.34803 3.61844 0 0 0
1466 15 1 12.30780 8.25606 5.92781 0 0 0
1459 15 1 12.20525 7.93281 4.43315 0 0 0
1461 15 1 11.65011 7.70896 3.61418 0 0 0
230 3 1 4.08494 10.06243 4.40626 1 0 0
1654 17 1 5.40711 8.50848 4.78166 -1 0 0
1974 20 1 7.03856 9.86200 5.00172 0 0 1
1416 15 1 8.36787 10.07836 4.07116 0 0 0
1464 15 1 12.05769 9.04099 4.42700 0 0 0
1085 11 1 0.31710 10.59897 3.03347 1 0 0
858 9 1 1.23583 9.49196 4.60239 1 -1 0
859 9 1 1.94216 8.81671 4.64004 1 -1 0
811 9 1 4.64715 9.22305 4.59847 1 -1 0
1418 15 1 8.86339 8.86263 4.87782 0 0 0
1066 11 1 10.57370 9.21813 4.93211 0 0 0
1086 11 1 0.94082 10.15797 3.57079 1 0 0
236 3 1 4.19313 10.87193 4.99806 1 0 0
810 9 1 5.07818 10.01347 4.20066 1 -1 0
167 2 1 5.55798 11.83330 4.24480 0 0 0
898 9 1 8.13592 11.08470 4.34061 0 -1 0
1980 20 1 9.22697 10.84201 4.50586 0 0 1
1163 12 1 9.90849 11.44016 3.86277 0 0 0
1164 12 1 10.87275 11.43943 3.98521 0 0 0
1165 12 1 11.57069 10.74810 3.99654 0 0 0
854 9 1 1.04186 12.59776 3.67129 1 -1 0
237 3 1 3.51720 11.58701 4.91151 1 0 0
106 2 1 6.60582 11.96439 3.88287 0 0 0
899 9 1 7.48489 11.76631 4.63518 0 -1 0
1981 20 1 9.26779 11.72058 4.81717 0 0 1
1982 20 1 9.67811 12.43613 4.16636 0 0 1
1074 11 1 13.21243 12.44100 2.70650 0 0 0
853 9 1 1.00897 12.39428 4.65049 1 -1 0
330 4 1 2.16597 11.51371 5.38825 0 -1 0
801 9 1 2.52276 11.21732 3.13619 1 -1 0
238 3 1 4.24063 12.05533 5.32360 1 0 0
170 2 1 5.05853 13.28229 3.75366 0 0 0
105 2 1 6.43431 12.35349 4.69682 0 0 0
900 9 1 8.22519 12.26835 4.32431 0 -1 0
101 2 1 9.46770 12.71516 5.85267 0 0 0
332 4 1 2.50938 12.51520 3.90651 0 -1 0
172 2 1 4.12540 0.27990 3.73507 0 1 0
171 2 1 4.34415 12.70703 3.55014 0 0 0
114 2 1 6.56085 0.34429 4.47575 0 1 0
708 8 1 9.74654 0.42373 4.59812 0 1 0
1137 12 1 11.67963 12.40371 3.77539 0 0 0
1477 15 1 12.67954 11.57612 4.30008 0 0 0
1478 15 1 12.94007 12.37769 3.71718 0 0 0
1485 15 1 1.93215 0.38166 3.65074 1 1 0
125 2 1 4.56149 2.13695 5.00263 0 1 0
59 1 1 7.50884 0.45801 5.89542 0 0 0
57 1 1 8.26470 0.23641 4.21367 0 0 0
1123 12 1 12.06494 0.64242 5.21108 0 1 0
850 9 1 13.18626 12.35271 4.68776 0 -1 0
128 2 1 2.73728 1.59691 4.25210 0 1 0
127 2 1 3.45094 0.97828 4.43067 0 1 0
579 6 1 5.51966 1.61916 5.23584 1 0 0
1481 15 1 12.37816 1.07226 4.29871 0 1 0
1482 15 1 13.17652 1.63748 3.96860 0 1 0
1612 17 1 13.12982 2.33518 5.38927 -1 0 0
178 2 1 3.35305 2.28922 4.65176 0 1 0
1998 20 1 7.78556 1.80698 4.58278 0 1 1
711 8 1 9.74049 1.37717 5.28907 0 1 0
1120 12 1 10.96352 0.73451 7.69324 0 1 0
1121 12 1 11.43766 1.17143 6.91439 0 1 0
1611 17 1 0.34932 1.96175 6.06274 0 0 0
179 2 1 2.75344 2.93823 5.11249 0 1 0
180 2 1 3.05760 3.80030 5.00636 0 1 0
122 2 1 4.92158 3.31190 5.05180 0 1 0
581 6 1 6.45611 1.59858 4.17842 1 0 0
1799 18 1 7.82338 3.50631 6.25553 -1 0 -1
712 8 1 10.17426 1.95733 4.59992 0 1 0
713 8 1 10.10103 2.75792 5.10456 0 1 0
1614 17 1 12.51604 1.49330 5.39190 -1 0 0
1613 17 1 12.17871 2.32605 5.68691 -1 0 0
135 2 1 13.09139 3.51215 5.79382 -1 1 0
131 2 1 1.27175 2.41298 5.40412 0 1 0
181 2 1 3.78489 4.27333 5.33804 0 1 0
1618 17 1 10.89016 1.73811 6.19768 -1 0 0
1443 15 1 11.22237 3.46462 5.62536 0 0 0
1433 15 1 0.43633 4.32756 5.16349 1 0 0
146 2 1 1.99005 4.04766 5.46435 0 1 0
44 1 1 4.12404 4.49490 3.29914 0 0 0
184 2 1 5.41640 4.28816 4.27074 0 1 0
1361 14 1 8.03752 3.86944 4.00455 -1 0 0
1362 14 1 8.84733 3.41073 4.32501 -1 0 0
1285 13 1 9.14296 4.20749 5.99214 -1 0 0
1442 15 1 11.83862 3.08700 5.01239 0 0 0
1439 15 1 12.21612 4.07896 5.10866 0 0 0
385 4 1 7.44294 4.92250 5.41445 -1 0 0
1431 15 1 1.58230 5.64889 5.96587 1 0 0
526 6 1 1.85434 5.54726 3.82434 0 0 0
527 6 1 1.96696 6.51384 3.91876 0 0 0
188 2 1 3.29048 5.39256 5.12029 0 1 0
186 2 1 4.77604 5.49800 4.46278 0 1 0
538 6 1 7.25493 6.47802 4.81251 0 0 0
384 4 1 6.80516 4.47833 4.89184 -1 0 0
1366 14 1 8.61482 5.10839 5.34621 -1 0 0
1449 15 1 10.01174 6.59776 5.14523 0 0 0
1429 15 1 0.45480 5.32258 6.75862 1 0 0
1012 11 1 12.64254 7.28653 5.52773 0 0 0
868 9 1 1.88204 7.21476 5.44439 1 -1 0
759 8 1 4.26104 6.26618 5.43119 1 0 0
535 6 1 5.46548 7.18249 5.33866 0 0 0
400 4 1 7.57271 7.52445 4.84150 -1 0 0
542 6 1 8.89191 6.47008 6.79559 0 0 0
1426 15 1 12.81198 5.90695 4.98177 0 0 0
1013 11 1 13.21302 7.86424 5.94814 0 0 0
1310 14 1 1.62431 7.46525 3.39141 0 0 0
534 6 1 4.57710 6.98921 4.88453 0 0 0
411 5 1 9.43112 7.85935 4.46163 0 0 0
1424 15 1 11.69311 7.17442 5.14426 0 0 0
1312 14 1 0.75341 8.47053 4.62270 0 0 0
814 9 1 4.76506 7.86403 5.61770 1 -1 0
1653 17 1 5.88974 8.07472 5.45833 -1 0 0
1652 17 1 5.73976 9.09327 5.52230 -1 0 0
1415 15 1 8.43659 9.13232 3.98056 0 0 0
1468 15 1 11.27098 8.96139 6.03433 0 0 0
1425 15 1 12.04320 6.33013 5.36052 0 0 0
1014 11 1 0.75330 7.41178 5.72180 1 0 0
1463 15 1 12.97188 8.63601 4.26454 0 0 0
860 9 1 2.53631 8.47868 4.01935 1 -1 0
812 9 1 3.78623 8.99875 4.99222 1 -1 0
1102 12 1 5.93567 10.43027 5.17817 0 0 0
1467 15 1 11.54128 8.38902 5.29045 0 0 0
1465 15 1 12.48410 8.95742 5.28086 0 0 0
1462 15 1 12.53660 8.10006 3.51589 0 0 0
232 3 1 2.45626 9.74181 4.19336 1 0 0
231 3 1 3.35486 9.46182 4.03215 1 0 0
1103 12 1 6.47316 10.74122 4.45573 0 0 0
1975 20 1 7.68494 9.30168 4.55964 0 0 1
1976 20 1 8.08343 9.48787 5.43063 0 0 1
1419 15 1 9.36131 8.85674 5.76273 0 0 0
1065 11 1 10.03644 10.06038 4.79748 0 0 0
1092 11 1 12.03114 9.95305 5.26140 0 0 0
1091 11 1 12.83755 10.35852 4.87973 0 0 0
1089 11 1 0.50139 10.16456 5.46474 1 0 0
233 3 1 2.35220 10.59970 4.54155 1 0 0
235 3 1 3.32552 10.56554 4.95040 1 0 0
166 2 1 5.22447 11.17455 4.92146 0 0 0
1064 11 1 10.20206 11.04351 5.08720 0 0 0
329 4 1 1.32546 11.29815 5.47031 0 -1 0
234 3 1 2.56928 10.57359 5.49388 1 0 0
239 3 1 4.33275 12.95142 4.99497 1 0 0
168 2 1 5.30155 12.24426 5.14274 0 0 0
104 2 1 7.26683 12.90827 4.81645 0 0 0
1979 20 1 9.15068 10.74673 5.42612 0 0 1
1063 11 1 11.06507 11.38202 5.07135 0 0 0
1475 15 1 12.32984 11.19653 5.19692 0 0 0
1087 11 1 0.32393 10.48708 4.25024 1 0 0
852 9 1 1.12781 13.16132 5.21217 1 -1 0
1488 15 1 3.31476 12.42992 5.48283 1 0 0
169 2 1 5.49797 12.92132 4.50084 0 0 0
1476 15 1 11.94180 11.93698 4.80384 0 0 0
1132 12 1 11.90314 12.22867 5.78420 0 0 0
1487 15 1 3.29704 13.07088 4.76119 1 0 0
241 3 1 5.19694 0.40847 5.49201 1 1 0
243 3 1 5.87971 12.69712 6.11413 1 0 0
58 1 1 7.99314 0.33941 5.10341 0 0 0
102 2 1 8.53670 13.03295 5.97160 0 0 0
1136 12 1 11.07300 12.31056 4.48297 0 0 0
851 9 1 0.26940 13.21255 4.89967 1 -1 0
1484 15 1 1.14544 0.15759 4.15503 1 1 0
158 2 1 3.11498 0.42671 5.62615 0 1 0
160 2 1 2.85780 12.86765 6.33757 0 0 0
60 1 1 6.93777 0.98960 5.32355 0 0 0
1115 12 1 9.14656 0.80064 6.34747 0 1 0
1135 12 1 10.36970 12.72997 4.89370 0 0 0
1124 12 1 13.09001 0.75611 5.08037 0 1 0
849 9 1 12.43367 12.93819 4.98384 0 -1 0
126 2 1 3.99587 1.41372 5.08574 0 1 0
124 2 1 4.71008 1.86070 5.85998 0 1 0
578 6 1 6.09526 1.30097 5.93591 1 0 0
2000 20 1 8.85385 2.05762 5.26435 0 1 1
1125 12 1 13.14229 0.89820 6.03170 0 1 0
1483 15 1 0.56992 1.01296 4.20849 1 1 0
156 2 1 1.53432 0.84384 4.77679 0 1 0
151 2 1 3.71459 2.41903 6.11603 0 1 0
123 2 1 4.62661 2.85153 5.79251 0 1 0
580 6 1 5.59025 2.04264 4.40718 1 0 0
1798 18 1 7.78512 2.67121 6.78400 -1 0 -1
132 2 1 1.52729 3.18719 5.85346 0 1 0
153 2 1 2.33825 1.81590 5.15967 0 1 0
152 2 1 3.16680 1.82899 5.68460 0 1 0
1620 17 1 10.03376 3.25158 6.07062 -1 0 0
1619 17 1 10.72864 2.65514 6.17532 -1 0 0
1608 17 1 11.34405 3.02115 7.17991 -1 0 0
134 2 1 0.16350 3.02249 6.53591 0 1 0
148 2 1 3.28308 4.80077 6.28000 0 1 0
150 2 1 3.34569 3.28367 5.96854 0 1 0
1358 14 1 6.35520 2.46958 5.49104 -1 0 0
1286 13 1 8.38498 4.14005 5.42054 -1 0 0
1621 17 1 9.26221 2.73180 6.07583 -1 0 0
1444 15 1 11.03667 3.82964 6.44049 0 0 0
1606 17 1 12.72853 3.23804 7.18767 -1 0 0
133 2 1 1.04073 2.63646 6.56952 0 1 0
182 2 1 4.72493 4.22303 5.54097 0 1 0
183 2 1 5.36120 4.74393 5.12729 0 1 0
1359 14 1 7.11916 2.88713 5.04369 -1 0 0
1447 15 1 11.33203 5.41154 5.81113 0 0 0
1432 15 1 1.14145 4.86943 5.66707 1 0 0
147 2 1 2.61444 4.77018 5.49443 0 1 0
190 2 1 3.37917 5.65875 6.88165 0 1 0
187 2 1 4.17719 5.25145 5.20204 0 1 0
1360 14 1 7.55176 3.67090 4.80977 -1 0 0
1448 15 1 10.71723 6.04533 5.40972 0 0 0
1605 17 1 12.41392 3.92722 6.53056 -1 0 0
189 2 1 3.61923 5.67037 5.98814 0 1 0
539 6 1 8.15470 6.14818 5.05646 0 0 0
540 6 1 9.10949 6.13454 5.27676 0 0 0
1367 14 1 8.99455 5.40783 6.12047 -1 0 0
544 6 1 9.90050 5.85635 6.02583 0 0 0
1428 15 1 13.06120 4.84466 6.35343 0 0 0
1011 11 1 13.24481 6.57072 5.78337 0 0 0
867 9 1 2.21531 6.32698 5.49113 1 -1 0
866 9 1 2.63192 5.69093 6.09826 1 -1 0
761 8 1 4.64105 5.39497 7.05795 1 0 0
392 4 1 5.71475 6.63116 6.25609 -1 0 0
541 6 1 9.29910 6.78940 5.96725 0 0 0
543 6 1 9.69890 5.82529 6.92544 0 0 0
1007 11 1 11.12599 6.60416 7.22354 0 0 0
1427 15 1 13.24143 5.19367 5.47954 0 0 0
1311 14 1 1.49542 7.97457 4.24298 0 0 0
863 9 1 3.10390 6.78731 5.89704 1 -1 0
760 8 1 4.68884 5.82648 6.14094 1 0 0
394 4 1 4.70065 7.71025 6.76302 -1 0 0
399 4 1 6.93095 7.76596 5.60185 -1 0 0
410 5 1 9.23162 6.93928 4.27632 0 0 0
1421 15 1 10.76227 7.74611 5.64431 0 0 0
1422 15 1 11.54166 7.54689 6.08848 0 0 0
1423 15 1 11.30724 6.62841 5.87159 0 0 0
1015 11 1 1.36141 7.03949 6.31841 1 0 0
815 9 1 3.99528 7.62158 6.09749 1 -1 0
1651 17 1 6.57303 8.85051 5.12155 -1 0 0
1420 15 1 10.20803 8.51330 5.83512 0 0 0
1313 14 1 1.25163 8.76731 5.35829 0 0 0
861 9 1 2.84984 8.30023 4.95834 1 -1 0
1101 12 1 6.39133 10.34659 5.99434 0 0 0
1648 17 1 7.64731 9.42875 6.73915 -1 0 0
1649 17 1 7.07603 9.10761 6.02772 -1 0 0
1469 15 1 10.54101 9.56782 6.01879 0 0 0
1093 11 1 12.42148 9.87593 6.10531 0 0 0
1315 14 1 0.49051 9.72287 6.35300 0 0 0
1314 14 1 0.48847 8.88236 5.90451 0 0 0
1019 11 1 3.18612 9.07052 5.79847 1 0 0
1020 11 1 3.39240 9.99786 5.84782 1 0 0
249 3 1 4.30596 10.28760 6.48313 1 0 0
1104 12 1 6.56636 11.42463 5.11192 0 0 0
1470 15 1 9.63658 9.90314 6.02039 0 0 0
327 4 1 1.06528 10.55757 6.25567 0 -1 0
1105 12 1 7.27889 10.85531 5.41985 0 0 0
1978 20 1 8.35595 11.28374 5.36332 0 0 1
1471 15 1 10.29010 10.57705 6.26590 0 0 0
1090 11 1 0.09893 9.54453 4.83054 1 0 0
1088 11 1 0.37338 11.05896 5.06527 1 0 0
328 4 1 0.59775 11.32323 6.09974 0 -1 0
1021 11 1 3.42362 10.93155 5.98843 1 0 0
164 2 1 4.42675 11.23636 6.07407 0 0 0
165 2 1 4.96216 10.57197 5.62583 0 0 0
245 3 1 5.84511 11.22659 6.12910 1 0 0
1977 20 1 8.15200 10.38855 5.11883 0 0 1
1474 15 1 12.56499 11.30435 6.15222 0 0 0
1489 15 1 2.65235 12.33195 4.84040 1 0 0
163 2 1 4.98152 11.93750 6.20234 0 0 0
244 3 1 6.43017 11.94698 6.13768 1 0 0
103 2 1 7.89336 12.56579 5.44839 0 0 0
1113 12 1 8.80865 12.76240 6.98736 0 0 0
1062 11 1 10.55401 11.60302 5.82055 0 0 0
1061 11 1 11.21527 11.89798 6.43958 0 0 0
1131 12 1 12.88148 12.31304 5.94441 0 0 0
1490 15 1 1.87594 12.89638 4.62726 1 0 0
161 2 1 3.75095 13.10415 6.49811 0 0 0
240 3 1 4.26131 0.47385 5.51464 1 1 0
242 3 1 5.74860 0.34192 6.29510 1 1 0
61 1 1 6.55849 0.17180 5.52249 0 0 0
1114 12 1 8.48493 0.40124 6.82945 0 1 0
1134 12 1 10.60229 13.01130 5.79544 0 0 0
1133 12 1 11.58902 13.11855 5.71947 0 0 0
1128 12 1 0.64914 12.79802 7.37303 1 0 0
1129 12 1 0.57705 12.27336 6.59624 1 0 0
571 6 1 3.99810 1.66248 6.84559 1 0 0
574 6 1 5.11099 0.17962 7.18358 1 0 0
848 9 1 12.64823 13.21090 5.86939 0 -1 0
1127 12 1 0.84255 0.23900 6.90839 1 1 0
157 2 1 2.17005 0.45478 5.38963 0 1 0
159 2 1 2.77333 0.52018 6.50587 0 1 0
570 6 1 3.05605 1.65729 6.75874 1 0 0
1341 14 1 7.78449 2.02732 5.94786 -1 0 0
1116 12 1 10.05294 0.63130 5.98004 0 1 0
1119 12 1 10.10915 0.26811 7.48872 0 1 0
844 9 1 12.18815 12.70891 7.01419 0 -1 0
1126 12 1 0.62488 0.37942 5.97760 1 1 0
155 2 1 1.35208 1.31669 5.57381 0 1 0
154 2 1 2.20532 1.47168 6.08650 0 1 0
569 6 1 2.96926 2.56939 7.00781 1 0 0
577 6 1 6.70243 0.82920 6.49838 1 0 0
1340 14 1 6.95902 2.06286 6.33783 -1 0 0
1999 20 1 8.22896 1.33595 5.22680 0 1 1
845 9 1 12.21543 0.33818 6.84614 0 0 0
1610 17 1 12.91319 2.17925 6.63168 -1 0 0
775 8 1 1.10665 3.61841 6.93305 1 0 0
568 6 1 2.03289 2.59189 6.63370 1 0 0
1357 14 1 5.67593 3.07112 5.81072 -1 0 0
1797 18 1 8.56877 2.20985 6.71307 -1 0 -1
1622 17 1 9.58562 1.91089 6.48541 -1 0 0
1623 17 1 9.79966 2.61307 7.10544 -1 0 0
1609 17 1 11.99521 2.47958 6.71309 -1 0 0
776 8 1 0.76425 4.07615 6.13374 1 0 0
149 2 1 3.71869 3.99176 6.48745 0 1 0
1338 14 1 6.70026 3.71343 5.89019 -1 0 0
1445 15 1 11.14735 4.44549 5.70253 0 0 0
1607 17 1 12.07253 2.90035 7.76161 -1 0 0
1337 14 1 6.89952 4.56473 6.27401 -1 0 0
386 4 1 7.78077 5.52409 6.14310 -1 0 0
1287 13 1 8.17986 4.42851 6.34392 -1 0 0
1446 15 1 11.88193 4.77743 6.23274 0 0 0
1604 17 1 12.13675 4.47992 7.27103 -1 0 0
563 6 1 1.65973 4.48831 6.50247 1 0 0
191 2 1 3.60063 5.10878 7.60803 0 1 0
390 4 1 5.70958 5.74605 5.61402 -1 0 0
1368 14 1 8.62815 5.16267 7.01414 -1 0 0
1603 17 1 11.23434 4.22776 7.40517 -1 0 0
556 6 1 12.66547 5.47502 8.13085 0 0 0
562 6 1 2.26181 5.03250 7.05629 1 0 0
762 8 1 4.83729 4.54869 6.57127 1 0 0
391 4 1 5.58143 5.79618 6.59531 -1 0 0
389 4 1 6.69384 5.65614 5.64356 -1 0 0
388 4 1 7.10078 6.53258 5.84249 -1 0 0
545 6 1 10.49299 5.27339 6.48003 0 0 0
546 6 1 10.59165 5.09671 7.47340 0 0 0
1008 11 1 11.51365 5.84902 6.71479 0 0 0
1009 11 1 12.29163 5.38758 6.91085 0 0 0
557 6 1 0.15965 5.71959 7.65936 1 0 0
865 9 1 2.71867 6.43301 6.72503 1 -1 0
398 4 1 6.91587 7.39594 6.48479 -1 0 0
408 5 1 8.45141 8.04842 5.35199 0 0 0
409 5 1 8.89346 7.19802 5.09692 0 0 0
1010 11 1 12.64453 5.99844 6.25014 0 0 0
864 9 1 2.43197 7.24298 6.39271 1 -1 0
816 9 1 3.35751 7.54946 6.74467 1 -1 0
393 4 1 4.93602 6.81322 6.79408 -1 0 0
397 4 1 6.01290 7.65312 6.37258 -1 0 0
1006 11 1 11.41418 7.46187 7.19348 0 0 0
1098 11 1 13.15529 7.21896 6.77706 0 0 0
1016 11 1 1.62855 7.99972 6.25244 1 0 0
1017 11 1 2.23888 8.53593 5.75078 1 0 0
862 9 1 2.97221 7.71955 5.67300 1 -1 0
817 9 1 2.78603 8.30426 6.60006 1 -1 0
395 4 1 5.28686 8.45581 6.47389 -1 0 0
396 4 1 6.21929 8.62310 6.55191 -1 0 0
1650 17 1 7.52153 8.62755 5.33416 -1 0 0
1324 14 1 8.47019 8.72770 6.20787 -1 0 0
1004 11 1 10.69957 8.14369 6.76495 0 0 0
1005 11 1 11.16973 8.36007 7.57848 0 0 0
1097 11 1 0.74065 7.64450 6.99732 1 0 0
325 4 1 1.67846 9.27493 6.92602 0 -1 0
1018 11 1 2.44731 9.51586 5.43845 1 0 0
248 3 1 5.07955 9.63348 6.29552 1 0 0
247 3 1 5.92677 9.68398 6.75959 1 0 0
951 10 1 11.14369 10.16125 6.65991 0 -1 -1
1094 11 1 12.80334 9.12264 6.57522 0 0 0
1498 15 1 3.68711 8.97551 6.71620 1 0 0
1647 17 1 7.65907 10.18620 6.11623 -1 0 0
945 10 1 8.67918 9.99450 6.64960 0 -1 -1
944 10 1 8.98998 10.22417 7.57295 0 -1 -1
950 10 1 10.97292 11.03434 6.91912 0 -1 -1
1316 14 1 13.27918 10.54062 6.40541 -1 0 0
326 4 1 1.57689 9.78849 6.06216 0 -1 0
1495 15 1 2.09648 10.01254 7.45498 1 0 0
1497 15 1 3.48739 9.73585 7.22560 1 0 0
246 3 1 5.61031 10.55460 6.73389 1 0 0
946 10 1 8.49752 10.82808 6.19947 0 -1 -1
949 10 1 10.26471 11.39476 7.36141 0 -1 -1
323 4 1 1.11260 9.15409 7.83912 0 -1 0
320 4 1 0.53049 10.36534 7.22430 0 -1 0
1494 15 1 2.52842 10.62938 6.82901 1 0 0
1022 11 1 3.11823 11.56440 6.61772 1 0 0
67 1 1 5.64985 11.58565 7.09159 0 -1 0
1106 12 1 7.60326 11.63319 5.92021 0 0 0
1112 12 1 7.95578 12.96239 7.34929 0 0 0
1472 15 1 10.96061 10.39563 5.54726 0 0 0
1473 15 1 11.74550 10.83192 5.96670 0 0 0
1059 11 1 12.07293 11.68815 7.08122 0 0 0
319 4 1 13.17417 11.08706 7.60400 -1 -1 0
1493 15 1 1.89091 11.32879 6.52093 1 0 0
162 2 1 4.61317 12.83905 6.24403 0 0 0
66 1 1 5.99980 12.43577 7.49864 0 -1 0
65 1 1 5.66812 13.03886 8.11146 0 -1 0
64 1 1 6.50389 0.03767 7.72307 0 0 0
1111 12 1 7.63963 12.77725 8.22153 0 0 0
1060 11 1 11.20318 11.90223 7.42765 0 0 0
1491 15 1 2.04678 12.70553 5.61234 1 0 0
572 6 1 3.73136 0.93036 6.26314 1 0 0
62 1 1 7.08981 12.83135 5.99343 0 -1 0
839 9 1 9.48665 12.12680 7.61320 0 -1 0
1130 12 1 0.49753 12.32259 5.65360 1 0 0
1028 11 1 4.30422 0.33732 7.82205 1 1 0
575 6 1 5.30309 1.11766 7.25002 1 0 0
837 9 1 8.53472 13.05652 8.59212 0 -1 0
842 9 1 11.26436 0.03927 6.78037 0 0 0
847 9 1 13.20266 0.00453 6.69617 0 0 0
603 7 1 1.22157 1.28158 6.50853 0 1 0
1030 11 1 2.73642 0.88019 7.56880 1 1 0
1029 11 1 3.40643 0.24421 7.42223 1 1 0
576 6 1 6.23604 1.41007 7.03808 1 0 0
1343 14 1 7.56433 0.95180 7.23371 -1 0 0
1342 14 1 8.06840 1.26999 6.43706 -1 0 0
1117 12 1 10.25584 1.15205 6.78915 0 1 0
843 9 1 11.43563 12.92742 7.64894 0 -1 0
846 9 1 12.98020 0.80477 7.12078 0 0 0
602 7 1 1.75694 1.05088 7.19336 0 1 0
1354 14 1 4.81049 2.30268 7.10503 -1 0 0
1795 18 1 8.49946 1.29025 7.82558 -1 0 -1
1118 12 1 9.67399 1.04440 7.54105 0 1 0
1739 18 1 0.81907 1.83062 8.18869 0 0 -1
601 7 1 1.42789 1.91546 7.28504 0 1 0
1355 14 1 5.49839 1.98520 6.49299 -1 0 0
1753 18 1 5.19747 4.01512 7.96499 -1 0 -1
1339 14 1 6.73176 2.92097 6.40035 -1 0 0
1796 18 1 9.02215 1.90002 7.46364 -1 0 -1
1291 13 1 8.44770 2.59366 8.72671 -1 0 0
1624 17 1 10.31276 3.34799 7.50624 -1 0 0
1842 19 1 11.59291 2.43190 8.67493 0 0 -1
1843 19 1 12.40845 2.10953 9.13049 0 0 -1
774 8 1 1.22672 3.20547 7.76523 1 0 0
566 6 1 2.85302 4.18642 7.02558 1 0 0
567 6 1 2.48216 3.43779 6.50631 1 0 0
1356 14 1 5.62812 2.94605 6.69735 -1 0 0
1750 18 1 7.50694 4.13175 7.25964 -1 0 -1
1290 13 1 8.41790 2.99208 7.84863 -1 0 0
1289 13 1 9.15068 3.51899 7.59006 -1 0 0
1841 19 1 10.96923 2.98846 8.24170 0 0 -1
777 8 1 0.26361 3.99416 6.90451 1 0 0
565 6 1 2.01251 4.10530 7.39905 1 0 0
765 8 1 4.03017 3.54087 8.15187 1 0 0
764 8 1 4.25741 4.03415 7.36033 1 0 0
1336 14 1 5.84161 4.43624 6.04493 -1 0 0
1751 18 1 6.68880 3.74300 7.09606 -1 0 -1
1288 13 1 8.56233 4.12582 7.15604 -1 0 0
1626 17 1 9.55042 4.64896 7.30944 -1 0 0
1840 19 1 10.73031 3.85831 8.30816 0 0 -1
564 6 1 1.22115 4.67296 7.36715 1 0 0
192 2 1 3.22430 4.52388 8.18785 0 1 0
763 8 1 4.75911 3.58637 6.52157 1 0 0
1334 14 1 6.68628 5.46275 6.68859 -1 0 0
387 4 1 7.97423 6.44766 6.19044 -1 0 0
1369 14 1 8.07690 5.38415 7.72419 -1 0 0
1601 17 1 11.35650 5.41698 8.89053 -1 0 0
1602 17 1 11.56776 4.88800 8.14077 -1 0 0
555 6 1 0.05400 5.67804 8.76395 1 0 0
561 6 1 2.24738 5.04912 8.04884 1 0 0
1333 14 1 6.34728 5.88966 7.45135 -1 0 0
1332 14 1 7.02775 6.41560 7.04251 -1 0 0
547 6 1 10.48389 5.96158 7.81700 0 0 0
559 6 1 1.31374 6.42944 7.23494 1 0 0
999 10 1 5.01429 6.57536 7.81249 0 -1 -1
1329 14 1 6.79458 7.49334 8.49072 -1 0 0
1331 14 1 7.54115 7.09283 7.40042 -1 0 0
1002 11 1 10.39924 6.98871 6.43621 0 0 0
1100 11 1 12.66481 6.31594 7.19282 0 0 0
558 6 1 0.40932 6.43123 6.98620 1 0 0
998 10 1 4.15875 6.57774 7.37594 0 -1 -1
1328 14 1 6.62151 7.65564 7.56728 -1 0 0
407 5 1 7.87788 7.61031 5.88999 0 0 0
1003 11 1 9.86793 7.82168 6.55227 0 0 0
1099 11 1 12.32315 6.92454 6.55274 0 0 0
821 9 1 1.45476 7.34538 7.99257 1 -1 0
820 9 1 1.96337 7.71798 7.24369 1 -1 0
819 9 1 2.71758 7.49804 7.74749 1 -1 0
818 9 1 2.93639 8.39611 7.56536 1 -1 0
996 10 1 4.57761 7.55906 8.33334 0 -1 -1
997 10 1 3.91365 7.49510 7.60557 0 -1 -1
73 1 1 5.44223 8.97386 7.50805 0 -1 0
1325 14 1 8.26232 8.76844 7.13673 -1 0 0
1323 14 1 9.39124 8.73322 6.82846 -1 0 0
1095 11 1 0.21295 9.19448 7.16395 1 0 0
1096 11 1 0.11394 8.25814 7.24131 1 0 0
72 1 1 6.39132 8.94515 7.65805 0 -1 0
943 10 1 9.15053 9.31365 7.73841 0 -1 -1
1322 14 1 10.20741 8.86809 7.29288 -1 0 0
952 10 1 11.75627 9.53291 7.17506 0 -1 -1
1496 15 1 2.68008 9.52234 6.75783 1 0 0
1499 15 1 4.50352 9.35975 7.02570 1 0 0
250 3 1 3.84911 10.67969 7.23237 1 0 0
251 3 1 4.12986 10.51847 8.19788 1 0 0
71 1 1 6.71901 9.77210 8.03604 0 -1 0
1645 17 1 7.51969 10.75624 7.51199 -1 0 0
1320 14 1 11.17684 10.33291 7.84076 -1 0 0
1317 14 1 12.82672 10.03461 7.07787 -1 0 0
324 4 1 1.26478 8.47827 7.17340 0 -1 0
69 1 1 6.60062 10.45100 7.24456 0 -1 0
1646 17 1 7.19213 10.88702 6.56381 -1 0 0
947 10 1 9.21171 11.51454 5.97926 0 -1 -1
948 10 1 9.42215 11.20523 6.85772 0 -1 -1
1318 14 1 12.03654 10.57129 7.27401 -1 0 0
321 4 1 1.38565 10.76277 7.43091 0 -1 0
1023 11 1 3.91340 11.91680 6.95318 1 0 0
1024 11 1 3.67946 11.52335 7.81211 1 0 0
68 1 1 6.53485 11.37965 7.47553 0 -1 0
1107 12 1 8.27918 11.92027 6.49332 0 0 0
929 10 1 8.29149 10.55162 8.28981 0 -1 -1
931 10 1 9.71147 11.29303 8.29402 0 -1 -1
1319 14 1 11.81528 11.08214 8.09464 -1 0 0
318 4 1 0.59323 11.51465 7.29590 0 -1 0
838 9 1 8.64630 12.39970 7.95249 0 -1 0
840 9 1 9.73482 12.22784 6.75574 0 -1 0
1058 11 1 12.61608 11.97699 7.89336 0 0 0
1492 15 1 1.75473 12.32017 6.43723 1 0 0
606 7 1 2.74209 12.61812 7.30810 0 0 0
1027 11 1 4.03897 12.71050 7.73698 1 0 0
573 6 1 4.59895 0.64116 6.52004 1 0 0
63 1 1 6.80906 13.01268 6.87044 0 -1 0
1109 12 1 7.64523 11.81397 8.20232 0 0 0
1110 12 1 6.97644 12.29834 7.72911 0 0 0
841 9 1 10.43889 12.84093 6.86195 0 -1 0
1057 11 1 12.87404 12.91552 7.83471 0 0 0
1738 18 1 0.73576 1.11463 7.57014 0 0 -1
1735 18 1 1.09751 1.65284 9.42982 0 0 -1
604 7 1 1.68520 0.35737 6.31291 0 1 0
605 7 1 2.10762 0.02111 7.09866 0 1 0
1344 14 1 7.34156 0.47471 8.01198 -1 0 0
836 9 1 9.19656 0.13414 8.09446 0 0 0
1851 19 1 11.26551 0.43483 8.67105 0 0 -1
1056 11 1 12.20161 0.26482 8.18159 0 1 0
1293 13 1 8.01577 0.86315 9.25982 -1 0 0
835 9 1 9.89524 12.84968 8.39559 0 -1 0
1743 18 1 11.59536 1.47338 7.96472 -1 0 -1
1741 18 1 12.78821 2.18847 7.82971 -1 0 -1
772 8 1 0.72631 3.13063 8.64348 1 0 0
1031 11 1 2.43192 1.79782 7.68649 1 1 0
1352 14 1 4.07861 2.36918 8.13462 -1 0 0
1754 18 1 4.95331 3.09033 8.09473 -1 0 -1
1794 18 1 7.82985 1.93670 7.63714 -1 0 -1
1292 13 1 8.33330 1.65478 8.82654 -1 0 0
1742 18 1 12.30896 1.54517 7.28156 -1 0 -1
773 8 1 1.10489 3.91833 8.37468 1 0 0
1353 14 1 4.07328 2.84481 7.24200 -1 0 0
1793 18 1 7.28219 2.73257 7.74281 -1 0 -1
1745 18 1 10.13160 1.91756 7.96517 -1 0 -1
1625 17 1 9.90344 3.89952 6.82413 -1 0 0
1844 19 1 12.19706 2.73652 9.86090 0 0 -1
771 8 1 0.17009 2.33139 8.76576 1 0 0
766 8 1 3.16038 3.22136 7.84077 1 0 0
199 2 1 5.14780 4.23214 9.58230 0 1 0
1752 18 1 5.73309 3.86263 7.15783 -1 0 -1
1746 18 1 9.59096 2.69203 8.18472 -1 0 -1
779 8 1 13.26901 4.73253 7.81483 0 0 0
778 8 1 0.28384 3.79282 7.83199 1 0 0
1501 16 1 0.89315 3.70119 9.48592 1 0 0
200 2 1 5.28485 5.17344 9.62396 0 1 0
1749 18 1 7.84436 3.82590 8.14271 -1 0 -1
1748 18 1 8.61883 3.97317 8.69068 -1 0 -1
1839 19 1 10.71841 4.02614 9.24065 0 0 -1
780 8 1 0.61335 4.84878 8.47447 1 0 0
1502 16 1 0.47998 3.86553 10.31959 1 0 0
193 2 1 2.34545 3.97804 8.37447 0 1 0
990 10 1 5.27313 5.17575 7.90676 0 -1 -1
991 10 1 4.46789 5.57725 8.17131 0 -1 -1
1335 14 1 5.97947 4.86476 6.86838 -1 0 0
1370 14 1 7.16074 5.08587 7.65487 -1 0 0
1627 17 1 8.87000 4.76848 8.02985 -1 0 0
560 6 1 1.69902 5.78461 7.80435 1 0 0
989 10 1 5.52580 5.68834 8.69919 0 -1 -1
1001 11 1 9.75818 6.94753 7.23233 0 0 0
548 6 1 10.45171 6.66194 8.41689 0 0 0
554 6 1 0.88897 5.92499 8.36660 1 0 0
1913 20 1 2.63307 6.13182 7.65293 0 0 0
1000 10 1 5.95898 6.80556 7.67188 0 -1 -1
1330 14 1 7.73865 7.37816 8.34383 -1 0 0
405 5 1 8.52848 7.41851 7.20127 0 0 0
549 6 1 10.58250 7.26288 7.73736 0 0 0
1914 20 1 2.47266 6.71324 8.40465 0 0 0
1927 20 1 4.89049 6.94656 9.23035 0 0 0
406 5 1 8.72500 7.64543 6.31694 0 0 0
404 5 1 9.32640 7.91948 7.52204 0 0 0
403 5 1 9.60695 8.33317 8.36411 0 0 0
550 6 1 11.37203 7.17253 8.23414 0 0 0
822 9 1 0.98448 8.16444 8.18022 1 -1 0
616 7 1 2.23334 7.47945 9.51204 0 0 0
995 10 1 4.19358 6.68190 8.52354 0 -1 -1
74 1 1 5.44513 8.00713 7.49446 0 -1 0
1327 14 1 7.09491 8.24768 7.01393 -1 0 0
1326 14 1 7.70056 8.29318 7.71563 -1 0 0
551 6 1 11.80890 6.29888 8.15298 0 0 0
823 9 1 0.19941 8.71618 8.22093 1 -1 0
615 7 1 2.11886 7.90656 8.66020 0 0 0
613 7 1 2.64889 8.95770 8.44694 0 0 0
1918 20 1 4.02252 7.82929 9.19309 0 0 0
76 1 1 4.96333 8.41004 9.33770 0 -1 0
75 1 1 5.06512 8.45105 8.30514 0 -1 0
942 10 1 9.47523 9.27651 8.65570 0 -1 -1
953 10 1 12.51939 8.90705 7.49696 0 -1 -1
824 9 1 13.02999 9.54959 8.06493 0 -1 0
623 7 1 0.70129 10.96789 9.60417 0 0 0
1644 17 1 7.70534 9.85387 7.69727 -1 0 0
1321 14 1 10.68681 9.67416 7.42298 -1 0 0
825 9 1 0.41528 9.55075 8.72632 1 -1 0
611 7 1 2.97743 10.11881 8.70229 0 0 0
612 7 1 2.80759 9.41206 9.30668 0 0 0
1500 15 1 4.20062 9.13498 7.92854 1 0 0
252 3 1 4.87568 10.19142 7.62694 1 0 0
70 1 1 5.89626 10.08042 7.73609 0 -1 0
941 10 1 9.57106 9.98134 9.34524 0 -1 -1
933 10 1 10.44801 10.01078 8.54155 0 -1 -1
826 9 1 12.86399 9.70145 9.10920 0 -1 0
322 4 1 1.09617 10.08214 8.09677 0 -1 0
610 7 1 2.61883 10.85654 9.20278 0 0 0
1761 18 1 6.36874 11.63921 8.57607 -1 -1 -1
930 10 1 9.21530 10.53447 8.51827 0 -1 -1
932 10 1 10.09939 10.51786 7.79287 0 -1 -1
829 9 1 0.74331 11.15335 8.33767 1 -1 0
317 4 1 1.38111 12.13155 7.35613 0 -1 0
316 4 1 1.68905 12.17877 8.32146 0 -1 0
1759 18 1 4.78461 12.51979 8.59142 -1 -1 -1
1108 12 1 8.07567 11.65604 7.37962 0 0 0
276 3 1 9.01433 0.33590 9.38101 1 1 0
830 9 1 0.35677 12.02661 8.20297 1 -1 0
1737 18 1 0.41787 0.55655 8.28721 0 0 -1
1736 18 1 0.34872 1.18679 9.06285 0 0 -1
607 7 1 2.52955 11.74208 7.47103 0 0 0
1758 18 1 4.61173 0.09562 8.79145 -1 0 -1
1297 13 1 6.67137 12.43770 9.29719 -1 -1 0
833 9 1 11.26745 11.78854 8.58714 0 -1 0
832 9 1 12.15272 11.52968 8.98170 0 -1 0
1052 11 1 1.04475 13.02430 8.33719 1 0 0
1756 18 1 5.74896 1.41718 8.10878 -1 0 -1
1298 13 1 6.43704 13.18514 8.77401 -1 -1 0
1294 13 1 7.80510 13.24959 9.21794 -1 -1 0
278 3 1 9.91269 1.41118 9.58256 1 1 0
1852 19 1 11.26274 12.89322 9.10642 0 -1 -1
1055 11 1 12.94908 0.28260 8.79520 0 1 0
1734 18 1 1.82659 1.29025 8.83197 0 0 -1
1785 18 1 3.34819 0.22001 9.21630 -1 0 -1
1351 14 1 4.14046 1.45171 7.94064 -1 0 0
1345 14 1 6.74827 1.24347 8.12790 -1 0 0
834 9 1 10.49860 12.12658 8.10680 0 -1 0
1850 19 1 11.96195 1.11469 8.85120 0 0 -1
901 10 1 12.34827 12.68012 8.84659 0 -1 -1
1740 18 1 0.37310 2.54329 7.58488 0 0 -1
1786 18 1 3.61062 1.03914 8.77113 -1 0 -1
1755 18 1 5.16040 2.13555 8.11467 -1 0 -1
1346 14 1 7.05555 1.19777 9.02009 -1 0 0
1395 14 1 7.75399 2.04066 9.51021 -1 0 0
1394 14 1 8.44172 2.64079 9.79901 -1 0 0
1744 18 1 10.89149 1.93350 7.36301 -1 0 -1
1845 19 1 12.97542 2.20232 10.10423 0 0 -1
769 8 1 1.56793 2.70972 9.59091 1 0 0
1032 11 1 3.09484 2.09541 8.30326 1 1 0
198 2 1 4.23086 3.93410 9.39911 0 1 0
1791 18 1 6.40320 2.93040 8.26617 -1 0 -1
1396 14 1 6.97168 2.46714 9.28663 -1 0 0
1835 19 1 10.41461 2.17904 10.77841 0 0 -1
1509 16 1 12.97352 3.60725 9.36840 0 0 0
1508 16 1 12.80262 3.24101 8.53295 0 0 0
768 8 1 1.58439 2.50235 8.66332 1 0 0
767 8 1 2.23298 2.88636 8.05147 1 0 0
1792 18 1 6.40414 2.41880 7.45517 -1 0 -1
1397 14 1 7.51863 3.11689 8.87392 -1 0 0
1747 18 1 9.51267 3.55372 8.50753 -1 0 -1
1836 19 1 10.86538 1.77847 10.00054 0 0 -1
1527 16 1 11.73638 3.48710 8.98602 0 0 0
1528 16 1 11.78417 4.32621 9.50181 0 0 0
194 2 1 2.16873 3.56642 9.17449 0 1 0
1373 14 1 6.65047 3.49868 9.47741 -1 0 0
1372 14 1 6.87448 3.92972 8.67756 -1 0 0
1398 14 1 7.64035 3.78309 9.60409 -1 0 0
1838 19 1 10.29396 3.16962 9.08074 0 0 -1
781 8 1 1.39300 4.67934 8.99222 1 0 0
1503 16 1 0.86965 4.76181 10.44475 1 0 0
1371 14 1 6.50172 4.38946 7.90586 -1 0 0
1628 17 1 9.60028 5.41448 8.15963 -1 0 0
976 10 1 10.42959 5.59804 11.08508 0 -1 -1
1530 16 1 11.91901 6.07098 9.38751 0 0 0
782 8 1 1.42947 5.38873 9.68201 1 0 0
1912 20 1 3.22270 5.93999 8.33782 0 0 0
1911 20 1 2.86846 6.18843 9.22491 0 0 0
992 10 1 4.58385 4.83107 8.81111 0 -1 -1
988 10 1 6.30105 5.99027 9.03270 0 -1 -1
986 10 1 7.92212 6.27207 8.52622 0 -1 -1
984 10 1 9.36816 7.00774 8.17050 0 -1 -1
1629 17 1 9.67578 6.08588 8.88138 -1 0 0
1630 17 1 10.02251 6.57999 9.59962 -1 0 0
978 10 1 10.95262 6.22389 9.67320 0 -1 -1
784 8 1 1.33492 6.38017 9.27846 1 0 0
786 8 1 1.29430 7.17224 10.02736 1 0 0
993 10 1 3.69070 5.22254 8.86181 0 -1 -1
1926 20 1 5.69715 6.73156 8.70965 0 0 0
985 10 1 8.65260 6.41601 7.91689 0 -1 -1
983 10 1 8.73410 7.58556 8.46634 0 -1 -1
552 6 1 12.75983 6.52368 8.31874 0 0 0
553 6 1 0.44854 6.68610 8.08725 1 0 0
958 10 1 12.27480 7.26235 8.85087 0 -1 -1
785 8 1 1.27624 7.34473 9.03475 1 0 0
1915 20 1 3.02253 7.35928 8.90049 0 0 0
994 10 1 4.02774 6.03531 9.26799 0 -1 -1
982 10 1 8.88487 7.97726 9.30672 0 -1 -1
981 10 1 9.63020 7.60347 8.96074 0 -1 -1
957 10 1 12.49446 8.11506 8.36744 0 -1 -1
1917 20 1 3.57173 8.27400 8.50294 0 0 0
1919 20 1 4.41479 7.60740 10.04434 0 0 0
1923 20 1 5.92531 8.54586 9.62764 0 0 0
1640 17 1 6.92962 9.32504 9.05888 -1 0 0
1639 17 1 7.17870 8.46291 8.64595 -1 0 0
402 5 1 10.09710 8.52944 9.19264 0 0 0
955 10 1 12.32234 7.84047 7.06349 0 -1 -1
622 7 1 1.57999 10.59834 9.54107 0 0 0
1551 16 1 2.52432 8.56766 10.89958 1 0 0
256 3 1 4.95102 9.48463 8.67151 1 0 0
259 3 1 6.99896 9.58045 10.05767 1 0 0
1642 17 1 8.50998 9.58737 8.94137 -1 0 0
401 5 1 10.19601 9.14717 9.85797 0 0 0
954 10 1 11.83765 8.64686 6.79543 0 -1 -1
621 7 1 1.83868 9.92266 8.88774 0 0 0
614 7 1 1.94417 8.53607 7.99140 0 0 0
77 1 1 5.09931 9.28746 9.66535 0 -1 0
255 3 1 4.90632 10.36401 9.04829 1 0 0
260 3 1 7.39942 9.72154 10.88336 1 0 0
1643 17 1 8.15346 9.08315 8.21712 -1 0 0
940 10 1 9.61002 10.47976 10.21651 0 -1 -1
934 10 1 10.88480 9.08262 8.32596 0 -1 -1
935 10 1 11.82997 9.37446 8.22025 0 -1 -1
201 3 1 12.09588 8.94570 9.29176 0 0 -1
624 7 1 0.48062 10.63899 10.44260 0 0 0
1554 16 1 3.87007 9.46954 9.10717 1 0 0
254 3 1 5.64702 10.99888 9.01219 1 0 0
927 10 1 7.78047 10.84355 9.23811 0 -1 -1
827 9 1 12.52437 10.56377 8.70033 0 -1 0
315 4 1 1.53154 11.51899 8.97806 0 -1 0
312 4 1 2.48958 11.93579 9.24837 0 -1 0
609 7 1 2.09021 10.87731 8.34708 0 0 0
1025 11 1 4.54664 11.72693 7.89720 1 0 0
253 3 1 5.19325 10.91596 8.16204 1 0 0
1762 18 1 6.44324 10.65095 8.51911 -1 -1 -1
926 10 1 7.49031 11.72163 9.28935 0 -1 -1
928 10 1 7.42213 10.32514 8.56424 0 -1 -1
273 3 1 9.13135 12.64286 10.08803 1 0 0
828 9 1 0.19925 10.57246 8.74295 1 -1 0
314 4 1 0.79746 11.96822 9.29745 0 -1 0
608 7 1 2.87447 10.88752 7.81030 0 0 0
1026 11 1 4.95168 12.51050 7.51193 1 0 0
1048 11 1 3.43743 12.48211 8.64491 1 0 0
1760 18 1 5.64322 12.24032 8.87287 -1 -1 -1
275 3 1 8.54331 0.22414 10.18623 1 1 0
313 4 1 1.59168 12.32992 9.52905 0 -1 0
1051 11 1 1.52864 0.49253 8.07223 1 1 0
1049 11 1 2.51193 12.70376 8.50613 1 0 0
1757 18 1 5.33709 0.62397 8.48882 -1 0 -1
1296 13 1 6.90864 12.65468 10.20309 -1 -1 0
1295 13 1 7.57949 0.01218 10.14745 -1 0 0
277 3 1 9.05942 1.14692 9.85077 1 1 0
831 9 1 13.12096 11.58290 8.92915 0 -1 0
1053 11 1 0.90946 0.03496 9.26769 1 1 0
1349 14 1 5.15215 1.80452 9.35569 -1 0 0
281 3 1 10.26550 0.55327 8.73554 1 1 0
1853 19 1 11.37155 12.84640 10.07963 0 -1 -1
902 10 1 12.17133 0.07963 9.50433 0 0 -1
304 4 1 0.94763 1.23538 10.34029 0 0 0
1733 18 1 1.89824 1.00511 9.70825 0 0 -1
1350 14 1 4.60231 1.35360 8.73763 -1 0 0
1347 14 1 6.22855 1.60392 9.21549 -1 0 0
1715 18 1 7.73012 0.11059 11.21852 0 0 -1
1716 18 1 7.48136 1.01428 10.90506 0 0 -1
280 3 1 9.40626 1.09726 8.65931 1 1 0
1849 19 1 11.01765 1.44368 9.06469 0 0 -1
1784 18 1 2.89962 1.06310 9.41426 -1 0 -1
1787 18 1 3.77637 1.75451 9.46734 -1 0 -1
1348 14 1 5.67633 1.31539 10.00017 -1 0 0
1718 18 1 6.33924 2.25076 10.25448 0 0 -1
1846 19 1 13.19285 1.26917 10.04699 0 0 -1
303 4 1 1.11600 2.16002 10.43250 0 0 0
770 8 1 0.62497 2.58101 9.59804 1 0 0
1033 11 1 3.07057 2.78785 8.92353 1 1 0
1790 18 1 5.72711 2.63010 8.92572 -1 0 -1
1393 14 1 9.30547 2.84990 9.55084 -1 0 0
1834 19 1 11.06349 2.87903 10.90398 0 0 -1
1510 16 1 12.33443 3.69874 10.12526 0 0 0
1506 16 1 12.53337 4.69331 8.77844 0 0 0
1252 13 1 2.09699 4.44374 9.92329 0 0 -1
197 2 1 3.72621 4.58303 9.77935 0 1 0
1789 18 1 4.95568 3.19510 9.07444 -1 0 -1
1376 14 1 6.70602 5.02849 9.10259 -1 0 0
1377 14 1 6.19221 4.52850 9.71533 -1 0 0
1383 14 1 9.32590 4.88054 9.91434 -1 0 0
1384 14 1 9.01038 4.00327 9.78615 -1 0 0
1526 16 1 11.15077 3.03789 9.63137 0 0 0
1507 16 1 12.20491 3.95183 8.20216 0 0 0
1505 16 1 12.80876 4.67540 9.70868 0 0 0
1374 14 1 5.90456 3.78625 8.93171 -1 0 0
1837 19 1 10.39909 2.26570 9.27253 0 0 -1
1529 16 1 11.88299 5.23537 9.80956 0 0 0
1903 20 1 0.12143 4.54828 11.09504 0 0 0
1504 16 1 0.43868 4.75636 9.59938 1 0 0
195 2 1 3.10901 3.97899 9.18211 0 1 0
1198 12 1 4.54695 4.59137 10.29137 0 0 -1
1400 14 1 7.68088 4.71419 8.55187 -1 0 0
1399 14 1 8.17906 4.56223 9.29906 -1 0 0
972 10 1 10.23254 4.98512 9.07474 0 -1 -1
973 10 1 10.94209 4.89524 9.69297 0 -1 -1
977 10 1 11.19050 5.73696 10.54360 0 -1 -1
1909 20 1 2.22698 5.91922 10.61129 0 0 0
1910 20 1 2.19511 6.49441 9.85795 0 0 0
1200 12 1 4.26794 5.62755 11.16464 0 0 -1
1199 12 1 4.19778 5.48706 10.19913 0 0 -1
987 10 1 6.95558 6.33685 8.50826 0 -1 -1
969 10 1 8.73991 6.48560 9.04819 0 -1 -1
975 10 1 10.21086 5.40431 10.14835 0 -1 -1
1531 16 1 12.81773 5.97863 9.85368 0 0 0
783 8 1 1.94839 5.71208 8.93610 1 0 0
787 8 1 1.99997 7.42886 10.65186 1 0 0
1928 20 1 5.05994 6.14178 9.59131 0 0 0
1925 20 1 5.68869 7.61558 9.11283 0 0 0
1631 17 1 9.97968 7.38136 10.06448 -1 0 0
979 10 1 10.88357 7.15236 9.52820 0 -1 -1
959 10 1 11.98092 7.52792 9.67721 0 -1 -1
1534 16 1 0.45478 7.61049 9.72154 1 0 0
1921 20 1 5.48537 8.15940 10.72427 0 0 0
1922 20 1 5.67663 8.98962 10.41332 0 0 0
1930 20 1 5.30938 7.00499 10.54707 0 0 0
980 10 1 10.56996 7.74677 8.83883 0 -1 -1
960 10 1 12.75595 8.07421 9.91729 0 -1 -1
617 7 1 2.11329 8.28577 9.84559 0 0 0
1916 20 1 3.04207 8.24586 9.26919 0 0 0
1920 20 1 4.61579 8.44649 10.47017 0 0 0
1924 20 1 6.04113 8.44024 8.66501 0 0 0
1641 17 1 7.71360 9.75295 9.39175 -1 0 0
1638 17 1 7.95098 8.51989 9.20655 -1 0 0
618 7 1 1.22772 8.70812 10.02515 0 0 0
1552 16 1 3.16005 8.76359 10.25423 1 0 0
258 3 1 6.08895 9.60724 9.68775 1 0 0
1637 17 1 7.95266 8.42005 10.09690 -1 0 0
936 10 1 11.51242 10.03920 8.83891 0 -1 -1
956 10 1 12.77853 7.49037 7.76957 0 -1 -1
1560 16 1 0.64929 9.94180 9.76522 1 0 0
1553 16 1 3.95350 8.76516 9.72746 1 0 0
78 1 1 4.53935 9.56935 10.40419 0 -1 0
261 3 1 7.82172 10.50670 11.22530 1 0 0
1636 17 1 8.47347 8.73148 10.82268 -1 0 0
937 10 1 11.33326 10.88062 9.20342 0 -1 -1
620 7 1 1.44552 9.06699 8.94498 0 0 0
1768 18 1 5.18192 11.43049 11.74963 -1 -1 -1
263 3 1 9.01979 9.93030 10.89145 1 0 0
939 10 1 9.84797 11.28386 9.84159 0 -1 -1
938 10 1 10.45974 10.58766 9.55059 0 -1 -1
1860 19 1 12.74166 10.39892 10.16435 0 -1 -1
311 4 1 2.24266 11.37433 10.09296 0 -1 0
625 7 1 1.31707 11.01359 10.60976 0 0 0
1555 16 1 3.91241 10.39164 9.42649 1 0 0
1763 18 1 6.67176 10.96232 9.46901 -1 -1 -1
272 3 1 9.35464 12.37993 9.14095 1 0 0
1859 19 1 12.83156 11.41806 10.15705 0 -1 -1
1557 16 1 2.58075 9.88649 10.55320 1 0 0
1556 16 1 3.24735 10.28832 10.03712 1 0 0
1047 11 1 3.81619 11.57196 8.85395 1 0 0
925 10 1 7.13017 11.54125 10.23080 0 -1 -1
271 3 1 8.81276 11.56857 8.91540 1 0 0
274 3 1 9.52931 0.20913 10.32599 1 1 0
1856 19 1 11.80517 11.30191 10.79042 0 -1 -1
1857 19 1 12.24497 12.19354 10.70146 0 -1 -1
1858 19 1 12.42085 12.21175 9.77024 0 -1 -1
1054 11 1 0.07868 12.88331 9.32020 1 0 0
1050 11 1 2.32410 0.35605 8.67741 1 1 0
1039 11 1 4.54295 13.07934 9.81189 1 0 0
1299 13 1 6.10687 0.56288 9.31171 -1 0 0
270 3 1 8.87636 10.77230 9.42009 1 0 0
282 3 1 10.22905 13.11270 9.35129 1 0 0
305 4 1 1.35215 0.35584 10.40691 0 0 0
1732 18 1 2.37398 0.10830 9.71272 0 0 -1
1731 18 1 2.92654 0.11565 10.42254 0 0 -1
1037 11 1 4.75736 1.41906 10.58323 1 1 0
1714 18 1 8.63376 0.57418 11.21113 0 0 -1
279 3 1 9.39939 1.98321 8.99538 1 1 0
457 5 1 0.77990 12.39276 10.32503 0 0 -1
1781 18 1 2.53876 1.39808 10.88231 -1 0 -1
1036 11 1 4.52285 2.25305 10.22720 1 1 0
1225 13 1 6.55610 0.62672 11.44315 0 0 -1
1848 19 1 11.38541 0.84900 9.70124 0 0 -1
458 5 1 0.34460 13.23268 10.27907 0 0 -1
302 4 1 1.40510 1.74933 11.22591 0 0 0
1782 18 1 2.33776 2.05235 10.21333 -1 0 -1
1035 11 1 3.56376 2.25977 10.50700 1 1 0
1719 18 1 5.61192 2.84475 10.01279 0 0 -1
1717 18 1 7.00163 1.59182 10.39022 0 0 -1
1847 19 1 12.30888 1.03122 9.86298 0 0 -1
297 3 1 0.33111 1.79683 11.50857 2 1 0
1783 18 1 2.50877 1.91541 9.30287 -1 0 -1
1034 11 1 3.09003 2.72904 9.85128 1 1 0
1788 18 1 4.25660 2.51495 9.21465 -1 0 -1
1378 14 1 6.23674 5.28531 10.31398 -1 0 0
1392 14 1 9.48153 2.66262 10.49539 -1 0 0
296 3 1 12.74474 2.11930 11.48846 1 1 0
1253 13 1 1.79375 3.57244 10.10826 0 0 -1
1833 19 1 10.35520 3.28950 10.50811 0 0 -1
1511 16 1 11.97451 3.67579 11.04716 0 0 0
1902 20 1 13.07355 3.56158 11.15473 -1 0 0
1251 13 1 2.59082 4.99202 9.35911 0 0 -1
1250 13 1 2.99729 5.17311 10.23463 0 0 -1
196 2 1 3.31833 3.72375 10.11590 0 1 0
1375 14 1 5.86236 4.72322 8.69437 -1 0 0
1382 14 1 9.24900 5.79031 9.95690 -1 0 0
1381 14 1 8.41307 5.39799 10.00759 -1 0 0
1385 14 1 9.31076 3.72165 10.64017 -1 0 0
1904 20 1 13.10220 5.36329 10.79296 -1 0 0
1908 20 1 1.80818 5.06408 10.86814 0 0 0
1249 13 1 3.66392 4.82857 10.88623 0 0 -1
1197 12 1 5.51051 4.44825 10.61599 0 0 -1
974 10 1 10.25333 4.46406 10.13477 0 -1 -1
1683 17 1 12.17477 5.27975 11.01012 -2 0 -1
1532 16 1 0.39253 6.32748 9.82263 1 0 0
1907 20 1 1.36442 5.22167 11.70658 0 0 0
1935 20 1 5.13064 5.91391 11.98457 0 0 0
1196 12 1 6.33317 4.44260 11.26980 0 0 -1
1192 12 1 7.70926 6.05046 10.32517 0 0 -1
971 10 1 9.32347 4.76112 8.90458 0 -1 -1
970 10 1 8.73291 5.50699 8.97132 0 -1 -1
1533 16 1 0.05042 6.98423 9.13736 1 0 0
788 8 1 2.74991 6.82523 10.85835 1 0 0
1929 20 1 5.78530 6.82763 9.71351 0 0 0
1191 12 1 7.21816 6.12985 9.52349 0 0 -1
699 7 1 7.65779 7.47948 10.37119 0 0 0
700 7 1 8.04114 7.15430 9.53021 0 0 0
968 10 1 8.94765 6.79310 9.95300 0 -1 -1
965 10 1 11.19857 7.13689 10.56729 0 -1 -1
1548 16 1 3.88683 6.50812 10.40317 1 0 0
1931 20 1 5.27784 6.06400 10.70491 0 0 0
697 7 1 6.92346 8.50451 10.09497 0 0 0
1633 17 1 8.78894 7.76537 10.44872 -1 0 0
1632 17 1 9.57813 7.64619 10.94084 -1 0 0
962 10 1 12.93430 7.68569 11.40171 0 -1 -1
1539 16 1 1.61509 8.10456 11.51462 1 0 0
1549 16 1 3.19108 7.03569 9.90205 1 0 0
688 7 1 4.01104 7.70111 11.06513 0 0 0
696 7 1 7.36903 8.53055 10.94476 0 0 0
1634 17 1 9.56087 8.40313 10.26026 -1 0 0
203 3 1 11.14473 8.33818 9.69768 0 0 -1
961 10 1 12.63890 8.40908 10.81433 0 -1 -1
619 7 1 0.68977 8.58554 9.23730 0 0 0
1538 16 1 0.81010 8.18400 10.76384 1 0 0
1550 16 1 2.91391 7.82090 10.38897 1 0 0
257 3 1 5.84284 9.62598 8.80440 1 0 0
262 3 1 8.69336 10.45166 11.61513 1 0 0
1635 17 1 8.85268 8.98221 9.90866 -1 0 0
202 3 1 11.48066 8.40761 8.75242 0 0 -1
1561 16 1 0.22273 9.28344 10.41637 1 0 0
79 1 1 4.55954 9.65836 11.35783 0 -1 0
1766 18 1 5.41198 10.23029 10.34029 -1 -1 -1
693 7 1 6.05021 8.77122 12.38274 0 0 0
912 10 1 9.85013 9.73121 11.43827 0 -1 -1
1562 16 1 0.19274 9.80648 11.20705 1 0 0
1559 16 1 1.06201 9.89512 10.60450 1 0 0
1767 18 1 5.55068 10.74050 11.19928 -1 -1 -1
1764 18 1 6.69528 10.61741 10.35228 -1 -1 -1
910 10 1 10.77068 11.15858 11.25304 0 -1 -1
1861 19 1 11.80142 10.33693 10.11750 0 -1 -1
1563 16 1 13.06479 10.09004 11.98410 0 0 0
626 7 1 2.02051 10.56251 11.04071 0 0 0
1558 16 1 1.83967 9.74371 9.96596 1 0 0
1769 18 1 4.59195 10.68665 11.84809 -1 -1 -1
265 3 1 8.21470 10.76203 10.35728 1 0 0
1564 16 1 12.85972 10.69622 11.33526 0 0 0
310 4 1 3.24174 11.30861 10.03905 0 -1 0
309 4 1 3.54844 12.18854 9.82698 0 -1 0
1770 18 1 4.42364 10.88372 10.88201 -1 -1 -1
1046 11 1 4.32827 11.31024 9.67225 1 0 0
1041 11 1 5.72701 12.70299 9.87768 1 0 0
924 10 1 6.38266 11.37828 10.88082 0 -1 -1
283 3 1 10.33202 12.11770 9.15081 1 0 0
1855 19 1 11.02250 11.18874 10.21504 0 -1 -1
306 4 1 1.94256 12.99541 10.66959 0 -1 0
307 4 1 2.67452 12.46488 10.21844 0 -1 0
1730 18 1 3.51337 0.90930 10.31742 0 0 -1
1038 11 1 4.50804 0.50360 10.40037 1 1 0
1040 11 1 5.34542 0.29789 9.93140 1 1 0
1300 13 1 6.56835 0.52575 10.19537 -1 0 0
269 3 1 8.83469 11.57570 10.00690 1 0 0
1826 19 1 11.49292 0.78717 11.63967 0 0 -1
903 10 1 12.10367 0.08842 10.49084 0 0 -1
487 5 1 2.84165 12.27368 11.59565 0 0 -1
1729 18 1 3.69297 0.42577 11.20395 0 0 -1
1576 16 1 7.30325 12.40325 12.20736 0 0 0
904 10 1 12.71193 0.10801 11.24830 0 0 -1
460 5 1 0.20634 0.81458 11.90246 0 1 -1
459 5 1 0.36470 0.64323 10.99117 0 1 -1
1780 18 1 2.76783 0.99102 11.70439 -1 0 -1
1727 18 1 4.12498 1.75045 11.34743 0 0 -1
1726 18 1 4.36471 2.64355 11.63782 0 0 -1
1226 13 1 5.84119 1.10244 10.98543 0 0 -1
1224 13 1 6.53080 1.59479 11.59616 0 0 -1
1713 18 1 8.36684 1.45135 11.40140 0 0 -1
1822 19 1 9.50301 0.60657 12.16936 0 0 -1
1827 19 1 11.09210 1.42414 12.29528 0 0 -1
292 3 1 12.30036 1.00178 11.02173 1 1 0
301 4 1 1.73273 0.88267 11.42024 0 0 0
18 1 1 3.22259 2.16681 11.79414 0 0 -1
1724 18 1 5.93571 3.27096 12.33439 0 0 -1
1725 18 1 5.03989 3.14234 12.00336 0 0 -1
1223 13 1 7.43575 1.51138 11.89411 0 0 -1
1821 19 1 9.49622 1.31448 12.81698 0 0 -1
293 3 1 11.87798 1.68370 10.58861 1 1 0
298 3 1 13.16588 1.67415 12.39205 1 1 0
20 1 1 2.37717 2.64776 11.64649 0 0 -1
1222 13 1 7.77037 2.38053 11.74803 0 0 -1
1711 18 1 8.24208 2.05897 10.64162 0 0 -1
1391 14 1 9.34049 2.80691 11.41076 -1 0 0
294 3 1 11.46328 1.95826 11.49093 1 1 0
295 3 1 12.13560 2.78419 11.48118 1 1 0
1512 16 1 11.75224 3.56245 12.01922 0 0 0
1254 13 1 1.38740 3.79449 10.90458 0 0 -1
21 1 1 1.80826 2.66650 10.88385 0 0 -1
1723 18 1 5.82422 3.52961 11.42358 0 0 -1
1722 18 1 6.02746 2.61128 11.20313 0 0 -1
1721 18 1 5.13849 2.84124 10.99788 0 0 -1
1720 18 1 4.74918 3.26954 10.19239 0 0 -1
1379 14 1 6.92437 4.63202 10.37993 -1 0 0
1710 18 1 8.29446 2.98223 10.85920 0 0 -1
1832 19 1 10.23643 3.14719 11.41611 0 0 -1
1901 20 1 0.22141 2.87835 10.71314 0 0 0
22 1 1 2.58206 3.24928 10.81706 0 0 -1
1937 20 1 4.99322 4.17961 11.67497 0 0 0
1219 13 1 7.16793 3.83656 10.97984 0 0 -1
1380 14 1 7.44513 5.18006 9.81988 -1 0 0
1386 14 1 8.77417 4.35179 11.07616 -1 0 0
1525 16 1 11.29070 3.68256 10.30656 0 0 0
1682 17 1 12.25881 4.46800 11.57313 -2 0 -1
1905 20 1 0.64368 5.74180 10.69820 0 0 0
792 8 1 2.49623 6.48317 13.00592 1 0 0
1938 20 1 4.36351 3.82533 11.10325 0 0 0
1936 20 1 5.14303 5.12957 11.39045 0 0 0
1194 12 1 6.91898 5.72359 11.24307 0 0 -1
1522 16 1 10.36133 4.94496 11.90141 0 0 0
1684 17 1 11.58141 5.62940 11.71893 -2 0 -1
1906 20 1 1.35438 6.06304 11.22272 0 0 0
791 8 1 2.64776 5.60464 12.69686 1 0 0
1248 13 1 2.99721 5.43033 11.22422 0 0 -1
1934 20 1 5.80404 6.36702 12.54247 0 0 0
1706 18 1 8.72122 5.69379 11.25972 0 0 -1
966 10 1 10.46573 6.73296 10.88563 0 -1 -1
789 8 1 2.28151 6.76522 11.68620 1 0 0
1547 16 1 3.69754 6.57837 11.31786 1 0 0
1195 12 1 6.19133 5.26980 11.73213 0 0 -1
1190 12 1 6.51791 6.21086 10.16723 0 0 -1
1705 18 1 9.51397 5.94902 11.72465 0 0 -1
967 10 1 9.59735 6.56061 10.62864 0 -1 -1
964 10 1 11.91320 6.52807 10.67704 0 -1 -1
798 8 1 0.73862 7.00030 12.22215 1 0 0
686 7 1 4.64889 7.24454 12.31788 0 0 0
687 7 1 4.73406 7.10986 11.38188 0 0 0
1932 20 1 5.74454 6.48007 11.34904 0 0 0
1189 12 1 6.42194 7.12006 10.52977 0 0 -1
1188 12 1 6.44602 7.89676 11.13174 0 0 -1
698 7 1 7.11778 7.68155 9.61069 0 0 0
1702 18 1 8.97472 7.11371 12.04744 0 0 -1
1701 18 1 8.12912 7.16219 11.55611 0 0 -1
963 10 1 12.73586 6.89217 10.82825 0 -1 -1
1535 16 1 0.33181 7.26430 10.60887 1 0 0
634 7 1 4.38544 9.72837 12.70278 0 0 0
692 7 1 6.35081 7.89947 12.32747 0 0 0
205 3 1 11.43325 8.57378 11.39323 0 0 -1
1536 16 1 1.05587 7.27170 11.20442 1 0 0
635 7 1 3.71451 9.09199 12.50148 0 0 0
689 7 1 4.04295 8.61271 11.38047 0 0 0
690 7 1 4.90310 8.75888 11.85187 0 0 0
691 7 1 5.45452 7.96608 11.91635 0 0 0
695 7 1 6.66530 8.94141 11.52721 0 0 0
913 10 1 9.70440 8.84207 11.25079 0 -1 -1
207 3 1 10.40131 8.05589 11.16073 0 0 -1
204 3 1 11.46887 8.15212 10.57472 0 0 -1
1866 19 1 12.30694 9.79559 11.06217 0 -1 -1
1537 16 1 0.61651 7.90395 11.65575 1 0 0
628 7 1 3.22557 9.43539 11.39356 0 0 0
629 7 1 3.50253 10.35435 11.34950 0 0 0
80 1 1 5.36136 9.65928 11.97330 0 -1 0
694 7 1 5.77124 8.88037 11.48050 0 0 0
1865 19 1 12.48644 9.34831 10.24955 0 -1 -1
1869 19 1 0.87020 8.92946 11.73359 1 -1 -1
627 7 1 2.56785 10.07443 11.58534 0 0 0
630 7 1 3.28379 10.49614 12.23875 0 0 0
81 1 1 6.13738 9.95266 12.37269 0 -1 0
1765 18 1 6.20204 9.84201 10.76105 -1 -1 -1
922 10 1 7.30663 11.37460 11.98416 0 -1 -1
264 3 1 8.43427 9.86670 10.07523 1 0 0
911 10 1 9.96886 10.65815 11.19017 0 -1 -1
1862 19 1 11.20854 9.72454 9.69917 0 -1 -1
1864 19 1 11.54000 9.27234 10.61635 0 -1 -1
1771 18 1 3.68197 11.42803 10.90484 -1 -1 -1
923 10 1 6.71136 10.73409 11.53185 0 -1 -1
266 3 1 8.23335 11.53130 10.91269 1 0 0
909 10 1 11.31185 11.10226 12.10098 0 -1 -1
1565 16 1 11.91230 10.60344 11.51310 0 0 0
455 5 1 0.17862 11.54087 10.94848 0 0 -1
308 4 1 3.51595 12.52140 10.71977 0 -1 0
1772 18 1 3.58916 11.45917 11.83589 -1 -1 -1
1045 11 1 4.86921 12.08153 9.61832 1 0 0
1042 11 1 5.81957 11.68591 9.80458 1 0 0
268 3 1 8.11595 12.32037 10.08970 1 0 0
284 3 1 10.38919 12.39832 10.01504 1 0 0
285 3 1 9.88022 12.46367 10.94620 1 0 0
488 5 1 2.02270 12.76508 11.69840 0 0 -1
1577 16 1 6.70354 12.03343 11.61650 0 0 0
1825 19 1 11.03002 0.92913 10.71969 0 0 -1
1854 19 1 11.29778 11.93207 9.61750 0 -1 -1
906 10 1 12.49437 12.61191 12.04403 0 -1 -1
456 5 1 13.21248 12.42561 10.76459 -1 0 -1
489 5 1 1.10071 12.95384 11.47222 0 0 -1
1778 18 1 1.74977 0.52339 13.00169 -1 0 -1
1728 18 1 3.85035 1.04120 11.94167 0 0 -1
1227 13 1 5.30547 1.78714 11.40576 0 0 -1
1575 16 1 8.00309 12.33225 12.91484 0 0 0
1824 19 1 10.64436 0.01233 10.65487 0 0 -1
288 3 1 10.70217 0.43641 12.19315 1 1 0
905 10 1 0.04971 13.03290 11.83991 1 -1 -1
300 3 1 1.49825 1.61490 0.10195 2 1 1
1779 18 1 2.35378 0.32738 12.26685 -1 0 -1
1228 13 1 4.96755 1.80276 12.29357 0 0 -1
1231 13 1 6.97468 1.76390 12.94613 0 0 -1
1232 13 1 6.88349 2.62577 12.45728 0 0 -1
1823 19 1 10.01343 0.35512 11.32243 0 0 -1
1828 19 1 10.48938 1.29731 11.48119 0 0 -1
291 3 1 12.48633 1.08793 11.94264 1 1 0
461 5 1 1.10745 0.93548 12.28110 0 1 -1
19 1 1 2.59441 2.32797 12.50121 0 0 -1
17 1 1 3.73565 2.20187 12.61110 0 0 -1
1943 20 1 4.99746 4.47315 12.94796 0 0 0
1233 13 1 7.24224 3.13598 13.14520 0 0 -1
1712 18 1 9.08210 1.68390 10.79350 0 0 -1
1829 19 1 9.83533 1.90458 11.72922 0 0 -1
299 3 1 0.72946 1.83230 12.77076 2 1 0
1256 13 1 0.27047 2.89200 11.88342 0 0 -1
1255 13 1 1.04246 3.09145 11.44312 0 0 -1
100 1 1 3.38601 3.15074 12.30862 0 0 0
1942 20 1 4.36664 3.68089 13.00491 0 0 0
1944 20 1 5.56073 5.16084 12.68604 0 0 0
1820 19 1 8.81978 1.76869 12.41706 0 0 -1
25 1 1 1.50567 4.17142 12.51400 0 0 -1
1220 13 1 7.19842 3.19046 10.26653 0 0 -1
1221 13 1 7.23516 2.46144 10.86995 0 0 -1
1709 18 1 8.22808 3.80527 10.41511 0 0 -1
1390 14 1 8.74957 3.54433 11.80214 -1 0 0
1831 19 1 10.72515 3.37386 12.28294 0 0 -1
1513 16 1 11.18275 4.26432 12.48128 0 0 0
1680 17 1 13.09561 4.01257 12.13759 -2 0 -1
1939 20 1 3.53293 3.45802 11.34123 0 0 0
1940 20 1 3.27194 4.31127 11.68391 0 0 0
1218 13 1 7.79227 3.63942 11.67630 0 0 -1
1708 18 1 7.79258 4.53333 10.81306 0 0 -1
1524 16 1 11.58968 4.48333 10.59022 0 0 0
1681 17 1 12.87608 4.98156 12.05768 -2 0 -1
23 1 1 2.41956 4.15573 11.03070 0 0 -1
1247 13 1 3.37395 5.42635 12.08637 0 0 -1
1707 18 1 7.82809 5.38897 11.38153 0 0 -1
1387 14 1 9.49601 4.93346 10.99133 -1 0 0
1523 16 1 11.19789 4.77629 11.42188 0 0 0
796 8 1 12.78001 6.03019 11.92372 0 0 0
1244 13 1 5.08945 5.45880 0.40661 0 0 0
1193 12 1 7.24276 6.56304 10.98391 0 0 -1
1521 16 1 10.72864 5.77758 12.30180 0 0 0
1686 17 1 12.37537 6.96444 12.26952 -2 0 -1
797 8 1 0.00373 6.81122 11.62925 1 0 0
790 8 1 1.95733 5.98955 12.15681 1 0 0
1546 16 1 4.06376 6.39969 12.14959 1 0 0
685 7 1 4.93678 6.68622 13.07481 0 0 0
1933 20 1 6.47848 6.85925 11.97576 0 0 0
1956 20 1 8.14895 6.32650 12.57077 0 0 0
1687 17 1 13.18176 6.96788 12.71706 -2 0 -1
799 8 1 1.49303 7.17292 12.83948 1 0 0
1540 16 1 2.47934 7.69992 11.51832 1 0 0
647 7 1 4.30198 8.21096 12.63688 0 0 0
648 7 1 5.03564 8.77212 12.89256 0 0 0
650 7 1 5.91468 7.34985 0.30700 0 0 1
1704 18 1 10.23595 6.60858 11.86925 0 0 -1
211 3 1 10.89749 7.34010 12.06522 0 0 -1
433 5 1 6.90596 8.86083 13.04815 0 0 -1
1187 12 1 7.17907 7.63466 11.66504 0 0 -1
1703 18 1 9.78412 7.49544 11.89129 0 0 -1
206 3 1 10.61606 8.93259 11.05027 0 0 -1
213 3 1 11.92068 7.88082 12.53017 0 0 -1
214 3 1 12.87927 8.03726 12.45203 0 0 -1
636 7 1 2.76761 9.20892 12.57848 0 0 0
633 7 1 4.14150 9.30514 0.25363 0 0 1
432 5 1 7.64425 8.44855 12.63111 0 0 -1
431 5 1 8.56500 8.64480 12.87046 0 0 -1
914 10 1 9.39924 8.64536 12.13626 0 -1 -1
738 8 1 12.12369 9.28656 12.86970 0 0 -1
631 7 1 3.13704 10.64498 13.17573 0 0 0
632 7 1 3.29729 9.75594 0.06990 0 0 1
1899 19 1 6.01399 10.16906 0.04547 1 -1 0
915 10 1 8.53526 8.31691 11.82687 0 -1 -1
208 3 1 10.63088 8.40828 12.07879 0 0 -1
1863 19 1 10.72215 9.86278 10.51898 0 -1 -1
1867 19 1 12.24518 9.14227 11.77737 0 -1 -1
1870 19 1 1.62172 9.23865 11.30331 1 -1 -1
920 10 1 8.71297 10.93745 12.92476 0 -1 -1
917 10 1 7.77491 9.37784 11.82655 0 -1 -1
916 10 1 8.72526 9.28155 11.88991 0 -1 -1
1569 16 1 9.54850 10.34708 12.31160 0 0 0
1868 19 1 13.18449 8.87443 11.80436 0 -1 -1
454 5 1 0.79158 10.95432 11.46210 0 0 -1
1871 19 1 1.35148 10.07224 11.64787 1 -1 -1
451 5 1 2.81953 11.75220 12.75036 0 0 -1
1773 18 1 4.22342 12.12417 11.63387 -1 -1 -1
82 1 1 5.89480 10.80263 12.23278 0 -1 0
921 10 1 7.80194 11.10601 12.79040 0 -1 -1
908 10 1 11.41738 11.97346 11.74600 0 -1 -1
1566 16 1 11.36101 9.77647 11.49599 0 0 0
485 5 1 1.14824 11.97291 11.48794 0 0 -1
453 5 1 1.58594 11.08146 11.88805 0 0 -1
452 5 1 2.49280 11.30157 11.97764 0 0 -1
1043 11 1 5.41631 11.97680 10.64029 1 0 0
1578 16 1 6.50100 12.80507 11.16206 0 0 0
267 3 1 7.70942 12.29275 10.95516 1 0 0
1571 16 1 8.59725 11.88571 11.77900 0 0 0
286 3 1 10.83556 12.21121 10.95884 1 0 0
907 10 1 11.74817 12.89468 11.50359 0 -1 -1
500 5 1 12.48398 11.59949 11.62958 -1 0 -1
486 5 1 2.06590 11.81042 11.27143 0 0 -1
1044 11 1 4.49687 12.08569 10.45340 1 0 0
1579 16 1 6.31060 12.98521 12.14541 0 0 0
1574 16 1 8.66424 13.03410 13.09268 0 0 0
491 5 1 1.84794 12.12295 12.77230 0 0 -1
1777 18 1 2.48123 0.07306 0.03341 -1 0 0
14 1 1 3.59517 0.34429 0.42250 0 0 0
88 1 1 5.12467 0.70211 12.29790 0 0 0
600 6 1 8.10982 0.67309 12.06546 1 0 -1
287 3 1 10.72185 12.88383 11.65001 1 0 0
289 3 1 11.20906 0.08418 12.99772 1 1 0
490 5 1 1.12511 12.58910 12.34437 0 0 -1
15 1 1 4.13285 0.40036 12.93609 0 0 -1
1229 13 1 5.87814 2.23995 12.48102 0 0 -1
1818 19 1 7.94336 2.35286 12.92878 0 0 -1
358 4 1 9.69767 2.71134 0.19189 -1 0 0
290 3 1 11.86703 0.70093 12.58516 1 1 0
506 6 1 12.50125 1.82091 0.60507 -1 0 0
462 5 1 2.01960 1.35997 12.40338 0 1 -1
98 1 1 2.56900 4.18110 12.85451 0 0 0
16 1 1 4.05694 1.35742 12.99390 0 0 -1
1230 13 1 6.12311 1.44813 13.03666 0 0 -1
1819 19 1 8.53722 2.68765 12.25163 0 0 -1
99 1 1 2.58931 3.65365 12.08953 0 0 0
1235 13 1 7.53977 4.05442 0.36313 0 0 0
1234 13 1 7.16144 3.95805 12.75833 0 0 -1
1216 13 1 8.32626 4.65511 12.27077 0 0 -1
1830 19 1 10.56357 2.49018 12.04116 0 0 -1
1259 13 1 11.45997 2.83986 12.86276 -1 0 -1
1258 13 1 12.22279 2.33500 12.95885 -1 0 -1
1257 13 1 12.88140 2.65699 12.43168 -1 0 -1
26 1 1 1.66450 5.05273 12.83938 0 0 -1
27 1 1 1.74301 4.70124 0.43871 0 0 0
1941 20 1 3.94520 4.17433 12.25691 0 0 0
1945 20 1 5.95874 4.24798 12.64848 0 0 0
1217 13 1 8.12585 3.77883 12.54859 0 0 -1
1215 13 1 9.01982 4.75632 12.94631 0 0 -1
1514 16 1 11.90093 4.04530 13.00323 0 0 0
1679 17 1 0.56619 4.53984 12.22235 -1 0 -1
24 1 1 2.14366 4.57804 11.93005 0 0 -1
1241 13 1 6.43526 5.76582 13.22945 0 0 -1
1238 13 1 7.14596 4.56989 11.90068 0 0 -1
1389 14 1 9.60286 3.91052 12.00778 -1 0 0
1518 16 1 11.37017 5.10546 13.01931 0 0 0
795 8 1 0.41856 5.88998 11.85117 1 0 0
794 8 1 0.96519 6.07869 12.56284 1 0 0
1245 13 1 4.51101 5.59435 12.93981 0 0 -1
1240 13 1 6.78498 5.94531 12.38193 0 0 -1
1239 13 1 7.56278 5.42217 12.38736 0 0 -1
1388 14 1 9.22858 4.78303 11.88454 -1 0 0
1685 17 1 11.79757 6.54820 11.65428 -2 0 -1
1693 17 1 0.42703 6.35861 1.06432 -1 0 0
793 8 1 1.59443 6.25704 13.28912 1 0 0
1246 13 1 4.32810 5.10366 12.06031 0 0 -1
1958 20 1 6.57214 6.81501 13.16831 0 0 0
1959 20 1 6.63458 6.52907 0.72772 0 0 1
1955 20 1 8.75640 5.62243 12.36094 0 0 0
1954 20 1 9.52997 5.94371 12.86274 0 0 0
1520 16 1 11.50495 6.24840 12.58819 0 0 0
1519 16 1 12.14309 5.59001 12.76368 0 0 0
1694 17 1 0.59411 6.61015 0.19015 -1 0 0
800 8 1 1.98787 7.19259 0.33146 1 0 1
1544 16 1 3.36905 7.68921 12.17721 1 0 0
1545 16 1 3.15633 6.73356 12.25752 1 0 0
684 7 1 3.99243 7.11398 13.11413 0 0 0
1957 20 1 7.39127 6.29689 13.16793 0 0 0
1688 17 1 12.41047 7.08708 13.26462 -2 0 -1
649 7 1 5.19124 7.81419 13.14457 0 0 0
651 7 1 6.82891 7.80835 0.05381 0 0 1
1186 12 1 7.45347 7.12917 12.48617 0 0 -1
210 3 1 10.92003 6.99504 12.95504 0 0 -1
216 3 1 13.23865 7.80986 0.09857 0 0 0
638 7 1 1.03861 9.01785 13.15252 0 0 0
1541 16 1 2.63206 8.57043 11.91191 1 0 0
434 5 1 6.25525 9.10970 0.39878 0 0 0
1185 12 1 7.89112 7.45466 13.27845 0 0 -1
887 9 1 9.92312 7.84219 0.37064 0 -1 0
212 3 1 11.71740 7.57502 11.67945 0 0 -1
215 3 1 0.53299 8.22937 12.73166 1 0 -1
639 7 1 0.36519 9.56340 12.68462 0 0 0
637 7 1 1.83020 9.10201 12.60663 0 0 0
644 7 1 2.82862 8.40174 1.49004 0 0 1
1900 19 1 5.13133 10.39596 13.06239 1 -1 -1
1182 12 1 7.59548 9.31310 0.25708 0 0 0
430 5 1 9.05147 7.80601 12.91432 0 0 -1
888 9 1 10.04305 8.40214 12.88493 0 -1 -1
209 3 1 10.94648 7.97991 12.87970 0 0 -1
739 8 1 12.65127 10.07143 13.01650 0 0 -1
737 8 1 12.76688 8.88785 0.21288 0 0 0
640 7 1 0.85905 10.23121 13.16698 0 0 0
643 7 1 3.17790 9.14395 0.96237 0 0 1
1898 19 1 6.30842 11.08872 13.21878 1 -1 -1
919 10 1 8.26870 10.07257 12.71482 0 -1 -1
889 9 1 9.76880 9.13356 0.09666 0 -1 0
740 8 1 12.75155 10.35335 0.59740 0 0 0
450 5 1 3.75532 11.74059 12.89418 0 0 -1
449 5 1 4.62675 11.51445 12.63416 0 0 -1
1897 19 1 5.64292 11.44913 0.52058 1 -1 0
1896 19 1 6.08010 12.16783 0.15408 1 -1 0
918 10 1 7.36639 9.78628 12.59156 0 -1 -1
1568 16 1 10.17287 9.59169 12.56484 0 0 0
1567 16 1 10.66377 10.23671 12.02611 0 0 0
741 8 1 0.36727 10.56570 0.85695 1 0 0
1872 19 1 1.93079 10.20435 12.42379 1 -1 -1
84 1 1 5.52272 12.46803 12.33551 0 -1 0
83 1 1 6.05062 11.71662 12.55816 0 -1 0
1590 16 1 9.44166 11.80291 0.42347 0 0 1
1592 16 1 10.37263 10.90547 0.99743 0 0 1
1570 16 1 9.30851 11.32225 12.08553 0 0 0
484 5 1 0.16796 12.02407 11.89519 0 0 -1
1774 18 1 4.24946 12.94540 12.14472 -1 -1 -1
597 6 1 6.81627 13.14125 0.02067 1 -1 0
1600 16 1 11.41397 12.54961 0.39818 0 0 1
499 5 1 12.61902 11.14398 12.48725 -1 0 -1
492 5 1 1.57037 12.79989 0.12767 0 0 0
1776 18 1 3.42526 12.89776 13.01903 -1 -1 -1
87 1 1 4.97447 0.54005 11.40458 0 0 0
1580 16 1 6.28074 0.51420 12.69944 0 1 0
1573 16 1 8.47737 13.05243 12.12968 0 0 0
1572 16 1 8.69142 12.71353 11.30480 0 0 0

Bonds

1 1 493 494
2 1 13 14
3 1 89 90
4 1 1581 1582
5 1 599 600
6 1 359 360
7 1 501 502
8 1 505 506
9 1 463 464
10 1 464 465
11 1 465 466
12 1 90 91
13 1 1813 1814
14 1 1582 1583
15 1 1817 1818
16 1 357 358
17 1 1261 1262
18 1 91 92
19 1 1815 1816
20 1 1816 1817
21 1 356 357
22 1 1260 1261
23 1 507 508
24 1 509 510
25 1 508 509
26 1 510 511
27 1 97 98
28 1 92 93
29 1 1236 1237
30 1 1210 1211
31 1 355 356
32 1 516 517
33 1 28 29
34 1 94 95
35 1 1237 1238
36 1 1214 1215
37 1 1515 1516
38 1 1678 1679
39 1 517 518
40 1 671 672
41 1 1946 1947
42 1 1212 1213
43 1 1516 1517
44 1 1676 1677
45 1 1677 1678
46 1 1696 1697
47 1 1669 1670
48 1 672 673
49 1 1242 1243
50 1 1952 1953
51 1 1953 1954
52 1 1517 1518
53 1 676 677
54 1 1243 1244
55 1 1963 1964
56 1 1960 1961
57 1 1695 1696
58 1 1692 1693
59 1 1543 1544
60 1 1965 1966
61 1 1964 1965
62 1 1961 1962
63 1 885 886
64 1 1689 1690
65 1 1690 1691
66 1 218 219
67 1 1542 1543
68 1 646 647
69 1 683 684
70 1 1966 1967
71 1 652 653
72 1 1184 1185
73 1 428 429
74 1 886 887
75 1 1151 1152
76 1 219 220
77 1 220 221
78 1 1967 1968
79 1 429 430
80 1 736 737
81 1 217 218
82 1 645 646
83 1 1889 1890
84 1 435 436
85 1 1183 1184
86 1 890 891
87 1 734 735
88 1 735 736
89 1 642 643
90 1 1886 1887
91 1 1888 1889
92 1 1890 1891
93 1 1181 1182
94 1 641 642
95 1 446 447
96 1 1895 1896
97 1 1178 1179
98 1 732 733
99 1 731 732
100 1 1146 1147
101 1 742 743
102 1 483 484
103 1 1873 1874
104 1 448 449
105 1 85 86
106 1 1589 1590
107 1 1591 1592
108 1 1593 1594
109 1 1597 1598
110 1 1599 1600
111 1 1775 1776
112 1 86 87
113 1 591 592
114 1 1594 1595
115 1 1598 1599
116 1 474 475
117 1 596 597
118 1 598 599
119 1 725 726
120 1 1595 1596
121 1 502 503
122 1 503 504
123 1 498 499
124 1 494 495
125 1 12 13
126 1 470 471
127 1 1583 1584
128 1 724 725
129 1 1264 1265
130 1 504 505
131 1 348 349
132 1 466 467
133 1 588 589
134 1 1812 1813
135 1 360 361
136 1 361 362
137 1 1263 1264
138 1 511 512
139 1 95 96
140 1 1814 1815
141 1 364 365
142 1 1262 1263
143 1 347 348
144 1 512 513
145 1 93 94
146 1 365 366
147 1 1209 1210
148 1 1208 1209
149 1 354 355
150 1 353 354
151 1 515 516
152 1 29 30
153 1 1947 1948
154 1 1211 1212
155 1 1207 1208
156 1 1674 1675
157 1 1673 1674
158 1 518 519
159 1 670 671
160 1 668 669
161 1 1213 1214
162 1 1206 1207
163 1 1675 1676
164 1 1670 1671
165 1 677 678
166 1 678 679
167 1 673 674
168 1 667 668
169 1 1951 1952
170 1 880 881
171 1 1697 1698
172 1 1668 1669
173 1 674 675
174 1 681 682
175 1 426 427
176 1 883 884
177 1 879 880
178 1 1667 1668
179 1 675 676
180 1 1962 1963
181 1 427 428
182 1 884 885
183 1 1152 1153
184 1 1691 1692
185 1 749 750
186 1 1664 1665
187 1 682 683
188 1 653 654
189 1 658 659
190 1 1666 1667
191 1 1665 1666
192 1 1968 1969
193 1 436 437
194 1 657 658
195 1 1156 1157
196 1 1150 1151
197 1 1149 1150
198 1 221 222
199 1 1883 1884
200 1 1969 1970
201 1 656 657
202 1 891 892
203 1 1148 1149
204 1 744 745
205 1 745 746
206 1 223 224
207 1 1887 1888
208 1 1891 1892
209 1 1180 1181
210 1 1177 1178
211 1 1176 1177
212 1 733 734
213 1 1147 1148
214 1 1885 1886
215 1 447 448
216 1 445 446
217 1 1894 1895
218 1 1179 1180
219 1 729 730
220 1 730 731
221 1 743 744
222 1 1874 1875
223 1 592 593
224 1 727 728
225 1 728 729
226 1 1145 1146
227 1 496 497
228 1 495 496
229 1 482 483
230 1 473 474
231 1 472 473
232 1 590 591
233 1 1588 1589
234 1 1587 1588
235 1 726 727
236 1 1596 1597
237 1 497 498
238 1 475 476
239 1 1586 1587
240 1 344 345
241 1 469 470
242 1 722 723
243 1 1079 1080
244 1 345 346
245 1 343 344
246 1 6 7
247 1 467 468
248 1 587 588
249 1 1811 1812
250 1 1810 1811
251 1 362 363
252 1 720 721
253 1 349 350
254 1 342 343
255 1 96 97
256 1 51 52
257 1 363 364
258 1 718 719
259 1 346 347
260 1 513 514
261 1 514 515
262 1 49 50
263 1 50 51
264 1 52 53
265 1 366 367
266 1 1202 1203
267 1 352 353
268 1 350 351
269 1 1672 1673
270 1 31 32
271 1 30 31
272 1 669 670
273 1 1948 1949
274 1 1993 1994
275 1 1203 1204
276 1 1274 1275
277 1 1671 1672
278 1 519 520
279 1 38 39
280 1 378 379
281 1 1949 1950
282 1 1992 1993
283 1 1205 1206
284 1 1204 1205
285 1 1699 1700
286 1 520 521
287 1 39 40
288 1 665 666
289 1 666 667
290 1 1950 1951
291 1 425 426
292 1 881 882
293 1 1698 1699
294 1 751 752
295 1 679 680
296 1 662 663
297 1 882 883
298 1 878 879
299 1 873 874
300 1 750 751
301 1 680 681
302 1 664 665
303 1 661 662
304 1 660 661
305 1 1301 1302
306 1 1663 1664
307 1 1660 1661
308 1 1406 1407
309 1 659 660
310 1 1155 1156
311 1 876 877
312 1 748 749
313 1 1661 1662
314 1 437 438
315 1 654 655
316 1 1158 1159
317 1 746 747
318 1 222 223
319 1 1881 1882
320 1 655 656
321 1 892 893
322 1 1157 1158
323 1 1172 1173
324 1 1171 1172
325 1 747 748
326 1 1884 1885
327 1 1970 1971
328 1 1892 1893
329 1 1070 1071
330 1 480 481
331 1 224 225
332 1 1893 1894
333 1 702 703
334 1 1175 1176
335 1 1071 1072
336 1 481 482
337 1 1875 1876
338 1 1876 1877
339 1 444 445
340 1 593 594
341 1 1141 1142
342 1 1144 1145
343 1 479 480
344 1 594 595
345 1 595 596
346 1 1140 1141
347 1 1077 1078
348 1 478 479
349 1 476 477
350 1 803 804
351 1 471 472
352 1 589 590
353 1 1584 1585
354 1 1585 1586
355 1 705 706
356 1 723 724
357 1 1078 1079
358 1 1080 1081
359 1 10 11
360 1 11 12
361 1 804 805
362 1 3 4
363 1 111 112
364 1 1265 1266
365 1 335 336
366 1 336 337
367 1 341 342
368 1 5 6
369 1 468 469
370 1 586 587
371 1 1809 1810
372 1 721 722
373 1 719 720
374 1 1268 1269
375 1 141 142
376 1 7 8
377 1 48 49
378 1 54 55
379 1 716 717
380 1 717 718
381 1 351 352
382 1 47 48
383 1 53 54
384 1 138 139
385 1 143 144
386 1 119 120
387 1 377 378
388 1 367 368
389 1 1994 1995
390 1 1201 1202
391 1 1276 1277
392 1 1277 1278
393 1 1273 1274
394 1 37 38
395 1 379 380
396 1 373 374
397 1 1991 1992
398 1 1278 1279
399 1 1275 1276
400 1 521 522
401 1 754 755
402 1 753 754
403 1 41 42
404 1 376 377
405 1 374 375
406 1 424 425
407 1 1279 1280
408 1 522 523
409 1 752 753
410 1 40 41
411 1 1280 1281
412 1 872 873
413 1 663 664
414 1 421 422
415 1 1154 1155
416 1 1153 1154
417 1 877 878
418 1 874 875
419 1 1306 1307
420 1 1659 1660
421 1 1405 1406
422 1 1407 1408
423 1 1408 1409
424 1 875 876
425 1 1303 1304
426 1 1302 1303
427 1 1662 1663
428 1 438 439
429 1 1411 1412
430 1 1409 1410
431 1 1159 1160
432 1 1170 1171
433 1 1168 1169
434 1 227 228
435 1 1882 1883
436 1 1410 1411
437 1 1173 1174
438 1 1167 1168
439 1 226 227
440 1 1880 1881
441 1 1971 1972
442 1 1801 1802
443 1 893 894
444 1 894 895
445 1 1174 1175
446 1 1069 1070
447 1 225 226
448 1 1879 1880
449 1 442 443
450 1 1802 1803
451 1 701 702
452 1 1143 1144
453 1 1083 1084
454 1 1877 1878
455 1 807 808
456 1 443 444
457 1 895 896
458 1 1142 1143
459 1 1073 1074
460 1 1072 1073
461 1 1082 1083
462 1 477 478
463 1 1 2
464 1 1804 1805
465 1 703 704
466 1 704 705
467 1 1076 1077
468 1 1081 1082
469 1 802 803
470 1 805 806
471 1 110 111
472 1 706 707
473 1 1139 1140
474 1 1266 1267
475 1 9 10
476 1 4 5
477 1 112 113
478 1 1807 1808
479 1 1808 1809
480 1 1985 1986
481 1 1267 1268
482 1 334 335
483 1 338 339
484 1 340 341
485 1 8 9
486 1 117 118
487 1 55 56
488 1 1269 1270
489 1 337 338
490 1 140 141
491 1 175 176
492 1 585 586
493 1 584 585
494 1 715 716
495 1 139 140
496 1 142 143
497 1 32 33
498 1 118 119
499 1 1996 1997
500 1 1995 1996
501 1 1988 1989
502 1 1272 1273
503 1 1270 1271
504 1 137 138
505 1 46 47
506 1 120 121
507 1 368 369
508 1 1989 1990
509 1 1435 1436
510 1 144 145
511 1 35 36
512 1 36 37
513 1 371 372
514 1 1990 1991
515 1 1282 1283
516 1 1441 1442
517 1 1436 1437
518 1 523 524
519 1 755 756
520 1 382 383
521 1 380 381
522 1 1281 1282
523 1 1437 1438
524 1 524 525
525 1 756 757
526 1 381 382
527 1 375 376
528 1 422 423
529 1 423 424
530 1 1453 1454
531 1 871 872
532 1 870 871
533 1 529 530
534 1 757 758
535 1 1658 1659
536 1 1404 1405
537 1 420 421
538 1 1452 1453
539 1 1455 1456
540 1 1307 1308
541 1 1305 1306
542 1 530 531
543 1 533 534
544 1 419 420
545 1 417 418
546 1 1304 1305
547 1 532 533
548 1 439 440
549 1 1656 1657
550 1 1412 1413
551 1 1160 1161
552 1 418 419
553 1 1169 1170
554 1 1460 1461
555 1 229 230
556 1 440 441
557 1 1655 1656
558 1 1417 1418
559 1 1161 1162
560 1 1067 1068
561 1 1084 1085
562 1 228 229
563 1 441 442
564 1 1973 1974
565 1 1068 1069
566 1 857 858
567 1 1878 1879
568 1 808 809
569 1 1972 1973
570 1 1803 1804
571 1 897 898
572 1 1162 1163
573 1 1166 1167
574 1 855 856
575 1 856 857
576 1 809 810
577 1 107 108
578 1 896 897
579 1 806 807
580 1 108 109
581 1 109 110
582 1 1805 1806
583 1 1983 1984
584 1 1075 1076
585 1 333 334
586 1 331 332
587 1 2 3
588 1 1806 1807
589 1 707 708
590 1 1984 1985
591 1 1138 1139
592 1 339 340
593 1 1486 1487
594 1 173 174
595 1 115 116
596 1 113 114
597 1 709 710
598 1 1479 1480
599 1 174 175
600 1 116 117
601 1 583 584
602 1 56 57
603 1 710 711
604 1 1986 1987
605 1 1122 1123
606 1 1480 1481
607 1 129 130
608 1 177 178
609 1 582 583
610 1 1997 1998
611 1 714 715
612 1 1987 1988
613 1 1271 1272
614 1 136 137
615 1 130 131
616 1 176 177
617 1 121 122
618 1 1617 1618
619 1 33 34
620 1 369 370
621 1 1616 1617
622 1 1615 1616
623 1 1440 1441
624 1 1434 1435
625 1 145 146
626 1 34 35
627 1 45 46
628 1 370 371
629 1 372 373
630 1 1363 1364
631 1 1284 1285
632 1 525 526
633 1 43 44
634 1 42 43
635 1 185 186
636 1 383 384
637 1 1364 1365
638 1 1283 1284
639 1 1438 1439
640 1 1430 1431
641 1 528 529
642 1 537 538
643 1 1365 1366
644 1 1451 1452
645 1 1450 1451
646 1 1454 1455
647 1 1456 1457
648 1 869 870
649 1 758 759
650 1 536 537
651 1 1402 1403
652 1 1401 1402
653 1 415 416
654 1 1457 1458
655 1 1308 1309
656 1 1309 1310
657 1 531 532
658 1 1657 1658
659 1 1403 1404
660 1 412 413
661 1 413 414
662 1 414 415
663 1 416 417
664 1 1458 1459
665 1 813 814
666 1 1413 1414
667 1 1414 1415
668 1 1466 1467
669 1 1459 1460
670 1 1461 1462
671 1 230 231
672 1 1654 1655
673 1 1974 1975
674 1 1416 1417
675 1 1464 1465
676 1 1085 1086
677 1 858 859
678 1 859 860
679 1 811 812
680 1 1418 1419
681 1 1066 1067
682 1 1086 1087
683 1 236 237
684 1 810 811
685 1 167 168
686 1 898 899
687 1 1980 1981
688 1 1163 1164
689 1 1164 1165
690 1 1165 1166
691 1 854 855
692 1 237 238
693 1 106 107
694 1 899 900
695 1 1981 1982
696 1 1982 1983
697 1 1074 1075
698 1 853 854
699 1 330 331
700 1 801 802
701 1 238 239
702 1 170 171
703 1 105 106
704 1 101 102
705 1 332 333
706 1 172 173
707 1 171 172
708 1 114 115
709 1 708 709
710 1 1137 1138
711 1 1477 1478
712 1 1478 1479
713 1 1485 1486
714 1 125 126
715 1 59 60
716 1 57 58
717 1 1123 1124
718 1 850 851
719 1 128 129
720 1 127 128
721 1 579 580
722 1 1481 1482
723 1 1482 1483
724 1 1612 1613
725 1 178 179
726 1 1998 1999
727 1 711 712
728 1 1120 1121
729 1 1121 1122
730 1 1611 1612
731 1 179 180
732 1 180 181
733 1 122 123
734 1 581 582
735 1 1799 1800
736 1 712 713
737 1 713 714
738 1 1614 1615
739 1 1613 1614
740 1 135 136
741 1 131 132
742 1 181 182
743 1 1618 1619
744 1 1443 1444
745 1 1433 1434
746 1 146 147
747 1 44 45
748 1 184 185
749 1 1361 1362
750 1 1362 1363
751 1 1285 1286
752 1 1442 1443
753 1 1439 1440
754 1 385 386
755 1 1431 1432
756 1 526 527
757 1 527 528
758 1 188 189
759 1 186 187
760 1 538 539
761 1 384 385
762 1 1366 1367
763 1 1449 1450
764 1 1429 1430
765 1 1012 1013
766 1 868 869
767 1 759 760
768 1 535 536
769 1 542 543
770 1 1426 1427
771 1 1013 1014
772 1 1310 1311
773 1 534 535
774 1 411 412
775 1 1424 1425
776 1 1312 1313
777 1 814 815
778 1 1653 1654
779 1 1652 1653
780 1 1415 1416
781 1 1468 1469
782 1 1425 1426
783 1 1014 1015
784 1 1463 1464
785 1 860 861
786 1 812 813
787 1 1102 1103
788 1 1467 1468
789 1 1465 1466
790 1 1462 1463
791 1 232 233
792 1 231 232
793 1 1103 1104
794 1 1975 1976
795 1 1976 1977
796 1 1419 1420
797 1 1065 1066
798 1 1092 1093
799 1 1091 1092
800 1 1089 1090
801 1 233 234
802 1 235 236
803 1 166 167
804 1 1064 1065
805 1 329 330
806 1 234 235
807 1 239 240
808 1 168 169
809 1 104 105
810 1 1979 1980
811 1 1063 1064
812 1 1475 1476
813 1 1087 1088
814 1 852 853
815 1 1488 1489
816 1 169 170
817 1 1476 1477
818 1 1132 1133
819 1 1487 1488
820 1 241 242
821 1 243 244
822 1 58 59
823 1 102 103
824 1 1136 1137
825 1 851 852
826 1 1484 1485
827 1 158 159
828 1 160 161
829 1 60 61
830 1 1115 1116
831 1 1135 1136
832 1 1124 1125
833 1 849 850
834 1 126 127
835 1 124 125
836 1 578 579
837 1 1125 1126
838 1 1483 1484
839 1 156 157
840 1 151 152
841 1 123 124
842 1 580 581
843 1 1798 1799
844 1 132 133
845 1 153 154
846 1 152 153
847 1 1620 1621
848 1 1619 1620
849 1 1608 1609
850 1 134 135
851 1 148 149
852 1 150 151
853 1 1358 1359
854 1 1286 1287
855 1 1621 1622
856 1 1444 1445
857 1 1606 1607
858 1 133 134
859 1 182 183
860 1 183 184
861 1 1359 1360
862 1 1447 1448
863 1 1432 1433
864 1 147 148
865 1 190 191
866 1 187 188
867 1 1360 1361
868 1 1448 1449
869 1 1605 1606
870 1 189 190
871 1 539 540
872 1 540 541
873 1 1367 1368
874 1 544 545
875 1 1428 1429
876 1 1011 1012
877 1 867 868
878 1 866 867
879 1 761 762
880 1 392 393
881 1 541 542
882 1 543 544
883 1 1007 1008
884 1 1427 1428
885 1 1311 1312
886 1 863 864
887 1 760 761
888 1 394 395
889 1 399 400
890 1 410 411
891 1 1421 1422
892 1 1422 1423
893 1 1423 1424
894 1 1015 1016
895 1 815 816
896 1 1651 1652
897 1 1420 1421
898 1 1313 1314
899 1 861 862
900 1 1101 1102
901 1 1648 1649
902 1 1649 1650
903 1 1469 1470
904 1 1093 1094
905 1 1315 1316
906 1 1314 1315
907 1 1019 1020
908 1 1020 1021
909 1 249 250
910 1 1104 1105
911 1 1470 1471
912 1 327 328
913 1 1105 1106
914 1 1978 1979
915 1 1471 1472
916 1 1090 1091
917 1 1088 1089
918 1 328 329
919 1 1021 1022
920 1 164 165
921 1 165 166
922 1 245 246
923 1 1977 1978
924 1 1474 1475
925 1 1489 1490
926 1 163 164
927 1 244 245
928 1 103 104
929 1 1113 1114
930 1 1062 1063
931 1 1061 1062
932 1 1131 1132
933 1 1490 1491
934 1 161 162
935 1 240 241
936 1 242 243
937 1 61 62
938 1 1114 1115
939 1 1134 1135
940 1 1133 1134
941 1 1128 1129
942 1 1129 1130
943 1 571 572
944 1 574 575
945 1 848 849
946 1 1127 1128
947 1 157 158
948 1 159 160
949 1 570 571
950 1 1341 1342
951 1 1116 1117
952 1 1119 1120
953 1 844 845
954 1 1126 1127
955 1 155 156
956 1 154 155
957 1 569 570
958 1 577 578
959 1 1340 1341
960 1 1999 2000
961 1 845 846
962 1 1610 1611
963 1 775 776
964 1 568 569
965 1 1357 1358
966 1 1797 1798
967 1 1622 1623
968 1 1623 1624
969 1 1609 1610
970 1 776 777
971 1 149 150
972 1 1338 1339
973 1 1445 1446
974 1 1607 1608
975 1 1337 1338
976 1 386 387
977 1 1287 1288
978 1 1446 1447
979 1 1604 1605
980 1 563 564
981 1 191 192
982 1 390 391
983 1 1368 1369
984 1 1603 1604
985 1 556 557
986 1 562 563
987 1 762 763
988 1 391 392
989 1 389 390
990 1 388 389
991 1 545 546
992 1 546 547
993 1 1008 1009
994 1 1009 1010
995 1 557 558
996 1 865 866
997 1 398 399
998 1 408 409
999 1 409 410
1000 1 1010 1011
1001 1 864 865
1002 1 816 817
1003 1 393 394
1004 1 397 398
1005 1 1006 1007
1006 1 1098 1099
1007 1 1016 1017
1008 1 1017 1018
1009 1 862 863
1010 1 817 818
1011 1 395 396
1012 1 396 397
1013 1 1650 1651
1014 1 1324 1325
1015 1 1004 1005
1016 1 1005 1006
1017 1 1097 1098
1018 1 325 326
1019 1 1018 1019
1020 1 248 249
1021 1 247 248
1022 1 951 952
1023 1 1094 1095
1024 1 1498 1499
1025 1 1647 1648
1026 1 945 946
1027 1 944 945
1028 1 950 951
1029 1 1316 1317
1030 1 326 327
1031 1 1495 1496
1032 1 1497 1498
1033 1 246 247
1034 1 946 947
1035 1 949 950
1036 1 323 324
1037 1 320 321
1038 1 1494 1495
1039 1 1022 1023
1040 1 67 68
1041 1 1106 1107
1042 1 1112 1113
1043 1 1472 1473
1044 1 1473 1474
1045 1 1059 1060
1046 1 319 320
1047 1 1493 1494
1048 1 162 163
1049 1 66 67
1050 1 65 66
1051 1 64 65
1052 1 1111 1112
1053 1 1060 1061
1054 1 1491 1492
1055 1 572 573
1056 1 62 63
1057 1 839 840
1058 1 1130 1131
1059 1 1028 1029
1060 1 575 576
1061 1 837 838
1062 1 842 843
1063 1 847 848
1064 1 603 604
1065 1 1030 1031
1066 1 1029 1030
1067 1 576 577
1068 1 1343 1344
1069 1 1342 1343
1070 1 1117 1118
1071 1 843 844
1072 1 846 847
1073 1 602 603
1074 1 1354 1355
1075 1 1795 1796
1076 1 1118 1119
1077 1 1739 1740
1078 1 601 602
1079 1 1355 1356
1080 1 1753 1754
1081 1 1339 1340
1082 1 1796 1797
1083 1 1291 1292
1084 1 1624 1625
1085 1 1842 1843
1086 1 1843 1844
1087 1 774 775
1088 1 566 567
1089 1 567 568
1090 1 1356 1357
1091 1 1750 1751
1092 1 1290 1291
1093 1 1289 1290
1094 1 1841 1842
1095 1 777 778
1096 1 565 566
1097 1 765 766
1098 1 764 765
1099 1 1336 1337
1100 1 1751 1752
1101 1 1288 1289
1102 1 1626 1627
1103 1 1840 1841
1104 1 564 565
1105 1 192 193
1106 1 763 764
1107 1 1334 1335
1108 1 387 388
1109 1 1369 1370
1110 1 1601 1602
1111 1 1602 1603
1112 1 555 556
1113 1 561 562
1114 1 1333 1334
1115 1 1332 1333
1116 1 547 548
1117 1 559 560
1118 1 999 1000
1119 1 1329 1330
1120 1 1331 1332
1121 1 1002 1003
1122 1 558 559
1123 1 998 999
1124 1 1328 1329
1125 1 407 408
1126 1 1003 1004
1127 1 1099 1100
1128 1 821 822
1129 1 820 821
1130 1 819 820
1131 1 818 819
1132 1 996 997
1133 1 997 998
1134 1 73 74
1135 1 1325 1326
1136 1 1323 1324
1137 1 1095 1096
1138 1 1096 1097
1139 1 72 73
1140 1 943 944
1141 1 1322 1323
1142 1 952 953
1143 1 1496 1497
1144 1 1499 1500
1145 1 250 251
1146 1 251 252
1147 1 71 72
1148 1 1645 1646
1149 1 1320 1321
1150 1 1317 1318
1151 1 324 325
1152 1 69 70
1153 1 1646 1647
1154 1 947 948
1155 1 948 949
1156 1 1318 1319
1157 1 321 322
1158 1 1023 1024
1159 1 1024 1025
1160 1 68 69
1161 1 1107 1108
1162 1 929 930
1163 1 931 932
1164 1 1319 1320
1165 1 318 319
1166 1 838 839
1167 1 840 841
1168 1 1058 1059
1169 1 1492 1493
1170 1 606 607
1171 1 1027 1028
1172 1 573 574
1173 1 63 64
1174 1 1109 1110
1175 1 1110 1111
1176 1 841 842
1177 1 1057 1058
1178 1 1738 1739
1179 1 1735 1736
1180 1 604 605
1181 1 605 606
1182 1 1344 1345
1183 1 836 837
1184 1 1851 1852
1185 1 1056 1057
1186 1 1293 1294
1187 1 835 836
1188 1 1743 1744
1189 1 1741 1742
1190 1 772 773
1191 1 1031 1032
1192 1 1352 1353
1193 1 1754 1755
1194 1 1794 1795
1195 1 1292 1293
1196 1 1742 1743
1197 1 773 774
1198 1 1353 1354
1199 1 1793 1794
1200 1 1745 1746
1201 1 1625 1626
1202 1 1844 1845
1203 1 771 772
1204 1 766 767
1205 1 199 200
1206 1 1752 1753
1207 1 1746 1747
1208 1 779 780
1209 1 778 779
1210 1 1501 1502
1211 1 1749 1750
1212 1 1748 1749
1213 1 1839 1840
1214 1 780 781
1215 1 1502 1503
1216 1 193 194
1217 1 990 991
1218 1 991 992
1219 1 1335 1336
1220 1 1370 1371
1221 1 1627 1628
1222 1 560 561
1223 1 989 990
1224 1 1001 1002
1225 1 548 549
1226 1 554 555
1227 1 1913 1914
1228 1 1330 1331
1229 1 405 406
1230 1 549 550
1231 1 1914 1915
1232 1 1927 1928
1233 1 406 407
1234 1 404 405
1235 1 403 404
1236 1 550 551
1237 1 822 823
1238 1 616 617
1239 1 995 996
1240 1 74 75
1241 1 1327 1328
1242 1 1326 1327
1243 1 551 552
1244 1 823 824
1245 1 615 616
1246 1 613 614
1247 1 1918 1919
1248 1 76 77
1249 1 75 76
1250 1 942 943
1251 1 953 954
1252 1 824 825
1253 1 623 624
1254 1 1644 1645
1255 1 1321 1322
1256 1 825 826
1257 1 611 612
1258 1 612 613
1259 1 252 253
1260 1 70 71
1261 1 941 942
1262 1 933 934
1263 1 826 827
1264 1 322 323
1265 1 610 611
1266 1 1761 1762
1267 1 930 931
1268 1 932 933
1269 1 829 830
1270 1 317 318
1271 1 316 317
1272 1 1759 1760
1273 1 1108 1109
1274 1 276 277
1275 1 830 831
1276 1 1737 1738
1277 1 1736 1737
1278 1 607 608
1279 1 1758 1759
1280 1 1297 1298
1281 1 833 834
1282 1 832 833
1283 1 1052 1053
1284 1 1756 1757
1285 1 1298 1299
1286 1 1294 1295
1287 1 278 279
1288 1 1852 1853
1289 1 1055 1056
1290 1 1734 1735
1291 1 1785 1786
1292 1 1351 1352
1293 1 1345 1346
1294 1 834 835
1295 1 1850 1851
1296 1 901 902
1297 1 1740 1741
1298 1 1786 1787
1299 1 1755 1756
1300 1 1346 1347
1301 1 1395 1396
1302 1 1394 1395
1303 1 1744 1745
1304 1 1845 1846
1305 1 769 770
1306 1 1032 1033
1307 1 198 199
1308 1 1791 1792
1309 1 1396 1397
1310 1 1835 1836
1311 1 1509 1510
1312 1 1508 1509
1313 1 768 769
1314 1 767 768
1315 1 1792 1793
1316 1 1397 1398
1317 1 1747 1748
1318 1 1836 1837
1319 1 1527 1528
1320 1 1528 1529
1321 1 194 195
1322 1 1373 1374
1323 1 1372 1373
1324 1 1398 1399
1325 1 1838 1839
1326 1 781 782
1327 1 1503 1504
1328 1 1371 1372
1329 1 1628 1629
1330 1 976 977
1331 1 1530 1531
1332 1 782 783
1333 1 1912 1913
1334 1 1911 1912
1335 1 992 993
1336 1 988 989
1337 1 986 987
1338 1 984 985
1339 1 1629 1630
1340 1 1630 1631
1341 1 978 979
1342 1 784 785
1343 1 786 787
1344 1 993 994
1345 1 1926 1927
1346 1 985 986
1347 1 983 984
1348 1 552 553
1349 1 553 554
1350 1 958 959
1351 1 785 786
1352 1 1915 1916
1353 1 994 995
1354 1 982 983
1355 1 981 982
1356 1 957 958
1357 1 1917 1918
1358 1 1919 1920
1359 1 1923 1924
1360 1 1640 1641
1361 1 1639 1640
1362 1 402 403
1363 1 955 956
1364 1 622 623
1365 1 1551 1552
1366 1 256 257
1367 1 259 260
1368 1 1642 1643
1369 1 401 402
1370 1 954 955
1371 1 621 622
1372 1 614 615
1373 1 77 78
1374 1 255 256
1375 1 260 261
1376 1 1643 1644
1377 1 940 941
1378 1 934 935
1379 1 935 936
1380 1 201 202
1381 1 624 625
1382 1 1554 1555
1383 1 254 255
1384 1 927 928
1385 1 827 828
1386 1 315 316
1387 1 312 313
1388 1 609 610
1389 1 1025 1026
1390 1 253 254
1391 1 1762 1763
1392 1 926 927
1393 1 928 929
1394 1 273 274
1395 1 828 829
1396 1 314 315
1397 1 608 609
1398 1 1026 1027
1399 1 1048 1049
1400 1 1760 1761
1401 1 275 276
1402 1 313 314
1403 1 1051 1052
1404 1 1049 1050
1405 1 1757 1758
1406 1 1296 1297
1407 1 1295 1296
1408 1 277 278
1409 1 831 832
1410 1 1053 1054
1411 1 1349 1350
1412 1 281 282
1413 1 1853 1854
1414 1 902 903
1415 1 304 305
1416 1 1733 1734
1417 1 1350 1351
1418 1 1347 1348
1419 1 1715 1716
1420 1 1716 1717
1421 1 280 281
1422 1 1849 1850
1423 1 1784 1785
1424 1 1787 1788
1425 1 1348 1349
1426 1 1718 1719
1427 1 1846 1847
1428 1 303 304
1429 1 770 771
1430 1 1033 1034
1431 1 1790 1791
1432 1 1393 1394
1433 1 1834 1835
1434 1 1510 1511
1435 1 1506 1507
1436 1 1252 1253
1437 1 197 198
1438 1 1789 1790
1439 1 1376 1377
1440 1 1377 1378
1441 1 1383 1384
1442 1 1384 1385
1443 1 1526 1527
1444 1 1507 1508
1445 1 1505 1506
1446 1 1374 1375
1447 1 1837 1838
1448 1 1529 1530
1449 1 1903 1904
1450 1 1504 1505
1451 1 195 196
1452 1 1198 1199
1453 1 1399 1400
1454 1 972 973
1455 1 973 974
1456 1 977 978
1457 1 1909 1910
1458 1 1910 1911
1459 1 1199 1200
1460 1 987 988
1461 1 969 970
1462 1 975 976
1463 1 1531 1532
1464 1 783 784
1465 1 787 788
1466 1 1928 1929
1467 1 1925 1926
1468 1 1631 1632
1469 1 979 980
1470 1 959 960
1471 1 1534 1535
1472 1 1921 1922
1473 1 1922 1923
1474 1 1930 1931
1475 1 980 981
1476 1 960 961
1477 1 617 618
1478 1 1916 1917
1479 1 1920 1921
1480 1 1924 1925
1481 1 1641 1642
1482 1 1638 1639
1483 1 618 619
1484 1 1552 1553
1485 1 258 259
1486 1 1637 1638
1487 1 936 937
1488 1 956 957
1489 1 1560 1561
1490 1 1553 1554
1491 1 78 79
1492 1 261 262
1493 1 1636 1637
1494 1 937 938
1495 1 620 621
1496 1 1768 1769
1497 1 263 264
1498 1 939 940
1499 1 938 939
1500 1 1860 1861
1501 1 311 312
1502 1 625 626
1503 1 1555 1556
1504 1 1763 1764
1505 1 272 273
1506 1 1859 1860
1507 1 1557 1558
1508 1 1556 1557
1509 1 1047 1048
1510 1 925 926
1511 1 271 272
1512 1 274 275
1513 1 1856 1857
1514 1 1857 1858
1515 1 1858 1859
1516 1 1054 1055
1517 1 1050 1051
1518 1 1039 1040
1519 1 1299 1300
1520 1 270 271
1521 1 282 283
1522 1 305 306
1523 1 1732 1733
1524 1 1731 1732
1525 1 1037 1038
1526 1 1714 1715
1527 1 279 280
1528 1 457 458
1529 1 1781 1782
1530 1 1036 1037
1531 1 1225 1226
1532 1 1848 1849
1533 1 458 459
1534 1 302 303
1535 1 1782 1783
1536 1 1035 1036
1537 1 1719 1720
1538 1 1717 1718
1539 1 1847 1848
1540 1 297 298
1541 1 1783 1784
1542 1 1034 1035
1543 1 1788 1789
1544 1 1378 1379
1545 1 1392 1393
1546 1 296 297
1547 1 1253 1254
1548 1 1833 1834
1549 1 1511 1512
1550 1 1902 1903
1551 1 1251 1252
1552 1 1250 1251
1553 1 196 197
1554 1 1375 1376
1555 1 1382 1383
1556 1 1381 1382
1557 1 1385 1386
1558 1 1904 1905
1559 1 1908 1909
1560 1 1249 1250
1561 1 1197 1198
1562 1 974 975
1563 1 1683 1684
1564 1 1532 1533
1565 1 1907 1908
1566 1 1935 1936
1567 1 1196 1197
1568 1 1192 1193
1569 1 971 972
1570 1 970 971
1571 1 1533 1534
1572 1 788 789
1573 1 1929 1930
1574 1 1191 1192
1575 1 699 700
1576 1 968 969
1577 1 965 966
1578 1 1548 1549
1579 1 1931 1932
1580 1 697 698
1581 1 1633 1634
1582 1 1632 1633
1583 1 962 963
1584 1 1539 1540
1585 1 1549 1550
1586 1 688 689
1587 1 696 697
1588 1 1634 1635
1589 1 203 204
1590 1 961 962
1591 1 619 620
1592 1 1538 1539
1593 1 1550 1551
1594 1 257 258
1595 1 262 263
1596 1 1635 1636
1597 1 202 203
1598 1 1561 1562
1599 1 79 80
1600 1 1766 1767
1601 1 693 694
1602 1 912 913
1603 1 1562 1563
1604 1 1559 1560
1605 1 1767 1768
1606 1 1764 1765
1607 1 910 911
1608 1 1861 1862
1609 1 1563 1564
1610 1 626 627
1611 1 1558 1559
1612 1 1769 1770
1613 1 265 266
1614 1 1564 1565
1615 1 310 311
1616 1 309 310
1617 1 1770 1771
1618 1 1046 1047
1619 1 1041 1042
1620 1 924 925
1621 1 283 284
1622 1 1855 1856
1623 1 306 307
1624 1 307 308
1625 1 1730 1731
1626 1 1038 1039
1627 1 1040 1041
1628 1 269 270
1629 1 1826 1827
1630 1 903 904
1631 1 487 488
1632 1 1729 1730
1633 1 1576 1577
1634 1 904 905
1635 1 460 461
1636 1 459 460
1637 1 1780 1781
1638 1 1727 1728
1639 1 1726 1727
1640 1 1226 1227
1641 1 1224 1225
1642 1 1713 1714
1643 1 1822 1823
1644 1 1827 1828
1645 1 292 293
1646 1 301 302
1647 1 18 19
1648 1 1724 1725
1649 1 1725 1726
1650 1 1223 1224
1651 1 1821 1822
1652 1 293 294
1653 1 298 299
1654 1 20 21
1655 1 1222 1223
1656 1 1711 1712
1657 1 1391 1392
1658 1 294 295
1659 1 295 296
1660 1 1512 1513
1661 1 1254 1255
1662 1 21 22
1663 1 1723 1724
1664 1 1722 1723
1665 1 1721 1722
1666 1 1720 1721
1667 1 1379 1380
1668 1 1710 1711
1669 1 1832 1833
1670 1 1901 1902
1671 1 22 23
1672 1 1937 1938
1673 1 1219 1220
1674 1 1380 1381
1675 1 1386 1387
1676 1 1525 1526
1677 1 1682 1683
1678 1 1905 1906
1679 1 792 793
1680 1 1938 1939
1681 1 1936 1937
1682 1 1194 1195
1683 1 1522 1523
1684 1 1684 1685
1685 1 1906 1907
1686 1 791 792
1687 1 1248 1249
1688 1 1934 1935
1689 1 1706 1707
1690 1 966 967
1691 1 789 790
1692 1 1547 1548
1693 1 1195 1196
1694 1 1190 1191
1695 1 1705 1706
1696 1 967 968
1697 1 964 965
1698 1 798 799
1699 1 686 687
1700 1 687 688
1701 1 1932 1933
1702 1 1189 1190
1703 1 1188 1189
1704 1 698 699
1705 1 1702 1703
1706 1 1701 1702
1707 1 963 964
1708 1 1535 1536
1709 1 634 635
1710 1 692 693
1711 1 205 206
1712 1 1536 1537
1713 1 635 636
1714 1 689 690
1715 1 690 691
1716 1 691 692
1717 1 695 696
1718 1 913 914
1719 1 207 208
1720 1 204 205
1721 1 1866 1867
1722 1 1537 1538
1723 1 628 629
1724 1 629 630
1725 1 80 81
1726 1 694 695
1727 1 1865 1866
1728 1 1869 1870
1729 1 627 628
1730 1 630 631
1731 1 81 82
1732 1 1765 1766
1733 1 922 923
1734 1 264 265
1735 1 911 912
1736 1 1862 1863
1737 1 1864 1865
1738 1 1771 1772
1739 1 923 924
1740 1 266 267
1741 1 909 910
1742 1 1565 1566
1743 1 455 456
1744 1 308 309
1745 1 1772 1773
1746 1 1045 1046
1747 1 1042 1043
1748 1 268 269
1749 1 284 285
1750 1 285 286
1751 1 488 489
1752 1 1577 1578
1753 1 1825 1826
1754 1 1854 1855
1755 1 906 907
1756 1 456 457
1757 1 489 490
1758 1 1778 1779
1759 1 1728 1729
1760 1 1227 1228
1761 1 1575 1576
1762 1 1824 1825
1763 1 288 289
1764 1 905 906
1765 1 1779 1780
1766 1 1228 1229
1767 1 1231 1232
1768 1 1232 1233
1769 1 1823 1824
1770 1 1828 1829
1771 1 291 292
1772 1 461 462
1773 1 19 20
1774 1 17 18
1775 1 1943 1944
1776 1 1233 1234
1777 1 1712 1713
1778 1 1829 1830
1779 1 299 300
1780 1 1256 1257
1781 1 1255 1256
1782 1 1942 1943
1783 1 1944 1945
1784 1 1820 1821
1785 1 25 26
1786 1 1220 1221
1787 1 1221 1222
1788 1 1709 1710
1789 1 1390 1391
1790 1 1831 1832
1791 1 1513 1514
1792 1 1680 1681
1793 1 1939 1940
1794 1 1940 1941
1795 1 1218 1219
1796 1 1708 1709
1797 1 1524 1525
1798 1 1681 1682
1799 1 23 24
1800 1 1247 1248
1801 1 1707 1708
1802 1 1387 1388
1803 1 1523 1524
1804 1 796 797
1805 1 1244 1245
1806 1 1193 1194
1807 1 1521 1522
1808 1 1686 1687
1809 1 797 798
1810 1 790 791
1811 1 1546 1547
1812 1 685 686
1813 1 1933 1934
1814 1 1956 1957
1815 1 1687 1688
1816 1 799 800
1817 1 1540 1541
1818 1 647 648
1819 1 648 649
1820 1 650 651
1821 1 1704 1705
1822 1 211 212
1823 1 433 434
1824 1 1187 1188
1825 1 1703 1704
1826 1 206 207
1827 1 213 214
1828 1 214 215
1829 1 636 637
1830 1 633 634
1831 1 432 433
1832 1 431 432
1833 1 914 915
1834 1 738 739
1835 1 631 632
1836 1 632 633
1837 1 1899 1900
1838 1 915 916
1839 1 208 209
1840 1 1863 1864
1841 1 1867 1868
1842 1 1870 1871
1843 1 920 921
1844 1 917 918
1845 1 916 917
1846 1 1569 1570
1847 1 1868 1869
1848 1 454 455
1849 1 1871 1872
1850 1 451 452
1851 1 1773 1774
1852 1 82 83
1853 1 921 922
1854 1 908 909
1855 1 1566 1567
1856 1 485 486
1857 1 453 454
1858 1 452 453
1859 1 1043 1044
1860 1 1578 1579
1861 1 267 268
1862 1 1571 1572
1863 1 286 287
1864 1 907 908
1865 1 486 487
1866 1 1044 1045
1867 1 1579 1580
1868 1 1574 1575
1869 1 491 492
1870 1 1777 1778
1871 1 14 15
1872 1 88 89
1873 1 287 288
1874 1 289 290
1875 1 490 491
1876 1 15 16
1877 1 1229 1230
1878 1 1818 1819
1879 1 358 359
1880 1 290 291
1881 1 506 507
1882 1 462 463
1883 1 98 99
1884 1 16 17
1885 1 1230 1231
1886 1 1819 1820
1887 1 99 100
1888 1 1235 1236
1889 1 1234 1235
1890 1 1216 1217
1891 1 1830 1831
1892 1 1259 1260
1893 1 1258 1259
1894 1 1257 1258
1895 1 26 27
1896 1 27 28
1897 1 1941 1942
1898 1 1945 1946
1899 1 1217 1218
1900 1 1215 1216
1901 1 1514 1515
1902 1 1679 1680
1903 1 24 25
1904 1 1241 1242
1905 1 1238 1239
1906 1 1389 1390
1907 1 1518 1519
1908 1 795 796
1909 1 794 795
1910 1 1245 1246
1911 1 1240 1241
1912 1 1239 1240
1913 1 1388 1389
1914 1 1685 1686
1915 1 1693 1694
1916 1 793 794
1917 1 1246 1247
1918 1 1958 1959
1919 1 1959 1960
1920 1 1955 1956
1921 1 1954 1955
1922 1 1520 1521
1923 1 1519 1520
1924 1 1694 1695
1925 1 1544 1545
1926 1 1545 1546
1927 1 684 685
1928 1 1957 1958
1929 1 1688 1689
1930 1 649 650
1931 1 651 652
1932 1 1186 1187
1933 1 210 211
1934 1 216 217
1935 1 638 639
1936 1 1541 1542
1937 1 434 435
1938 1 1185 1186
1939 1 887 888
1940 1 212 213
1941 1 215 216
1942 1 639 640
1943 1 637 638
1944 1 644 645
1945 1 1182 1183
1946 1 430 431
1947 1 888 889
1948 1 209 210
1949 1 739 740
1950 1 737 738
1951 1 640 641
1952 1 643 644
1953 1 1898 1899
1954 1 919 920
1955 1 889 890
1956 1 740 741
1957 1 450 451
1958 1 449 450
1959 1 1897 1898
1960 1 1896 1897
1961 1 918 919
1962 1 1568 1569
1963 1 1567 1568
1964 1 741 742
1965 1 1872 1873
1966 1 84 85
1967 1 83 84
1968 1 1590 1591
1969 1 1592 1593
1970 1 1570 1571
1971 1 484 485
1972 1 1774 1775
1973 1 597 598
1974 1 499 500
1975 1 492 493
1976 1 1776 1777
1977 1 87 88
1978 1 1580 1581
1979 1 1573 1574
1980 1 1572 1573
