CAPS sample · polystyrene 10 x DP 8 · atom_style full · units real

1300 atoms
1370 bonds

4 atom types
1 bond types

0.0 33.0000 xlo xhi
0.0 33.0000 ylo yhi
0.0 33.0000 zlo zhi

Masses

1 12.011  # c3
2 12.011  # ca
3 1.008  # hc
4 1.008  # ha

Atoms  # full

1 1 1 -0.058379 20.072498 0.986989 30.420918 0 0 0
2 1 1 -0.018134 18.639398 1.211589 30.907415 0 0 0
3 1 1 -0.039597 17.669117 1.644470 29.806475 0 0 0
4 1 1 -0.014764 17.861320 3.088961 29.340211 0 0 0
5 1 1 -0.039327 16.819631 3.558236 28.322585 0 0 0
6 1 1 -0.014755 16.983105 5.017416 27.892503 0 0 0
7 1 1 -0.039327 15.847886 5.536309 27.007670 0 0 0
8 1 1 -0.014755 16.039362 6.977543 26.531139 0 0 0
9 1 1 -0.039327 14.840089 7.545745 25.769699 0 0 0
10 1 1 -0.014755 15.095598 8.916375 25.139630 0 0 0
11 1 1 -0.039327 13.871429 9.522418 24.450411 0 0 0
12 1 1 -0.014755 14.099532 10.933389 23.904491 0 0 0
13 1 1 -0.039335 12.833236 11.606700 23.371531 0 0 0
14 1 1 -0.015007 12.350775 11.051495 22.029936 0 0 0
15 1 1 -0.042196 10.996970 11.603325 21.578719 0 0 0
16 1 1 -0.027132 10.363534 10.828462 20.421461 0 0 0
17 1 3 0.023554 20.055646 0.210590 29.656051 0 0 0
18 1 3 0.023554 20.437494 1.920062 29.991672 0 0 0
19 1 2 -0.044513 18.133761 32.918983 31.502059 0 -1 0
20 1 2 -0.058315 17.557762 31.955363 30.682448 0 -1 0
21 1 2 -0.061493 17.092309 30.765481 31.229835 0 -1 0
22 1 2 -0.061741 17.202853 30.539219 32.596834 0 -1 0
23 1 2 -0.061493 17.778852 31.502838 0.416445 0 -1 1
24 1 2 -0.058315 18.244306 32.692721 32.869058 0 -1 0
25 1 4 0.062038 17.471872 32.131164 29.620320 0 -1 0
26 1 4 0.061767 16.644770 30.016769 30.593015 0 -1 0
27 1 4 0.061758 16.841206 29.614706 0.022142 0 -1 1
28 1 4 0.061767 17.864743 31.327037 1.478574 0 -1 1
29 1 4 0.062038 18.691844 0.441433 0.505878 0 0 1
30 1 3 0.034630 18.656249 1.987988 31.672282 0 0 0
31 1 3 0.027678 16.652922 1.540873 30.186890 0 0 0
32 1 3 0.027678 17.810860 0.987106 28.948639 0 0 0
33 1 2 -0.044235 17.781489 3.990641 30.548806 0 0 0
34 1 2 -0.058306 16.610700 4.049733 31.295708 0 0 0
35 1 2 -0.061493 16.537213 4.879756 32.408255 0 0 0
36 1 2 -0.061741 17.634513 5.650688 32.773900 0 0 0
37 1 2 -0.061493 18.805302 5.591596 32.026997 0 0 0
38 1 2 -0.058306 18.878789 4.761573 30.914450 0 0 0
39 1 4 0.062038 15.758122 3.450736 31.011610 0 0 0
40 1 4 0.061767 15.627536 4.925669 32.988582 0 0 0
41 1 4 0.061758 17.577415 6.295598 0.638325 0 0 1
42 1 4 0.061767 19.657880 6.190593 32.311095 0 0 0
43 1 4 0.062038 19.788466 4.715660 30.334123 0 0 0
44 1 3 0.034915 18.847114 3.171663 28.882532 0 0 0
45 1 3 0.027687 15.831329 3.442103 28.767414 0 0 0
46 1 3 0.027687 16.901376 2.929737 27.435789 0 0 0
47 1 2 -0.044235 18.276692 5.141749 27.123559 0 0 0
48 1 2 -0.058306 18.481382 4.378900 25.979766 0 0 0
49 1 2 -0.061493 19.672167 4.493352 25.271930 0 0 0
50 1 2 -0.061741 20.658262 5.370653 25.707888 0 0 0
51 1 2 -0.061493 20.453572 6.133503 26.851681 0 0 0
52 1 2 -0.058306 19.262787 6.019050 27.559517 0 0 0
53 1 4 0.062038 17.715207 3.697256 25.641036 0 0 0
54 1 4 0.061767 19.831207 3.900635 24.383227 0 0 0
55 1 4 0.061758 21.583476 5.459580 25.157914 0 0 0
56 1 4 0.061767 21.219746 6.815147 27.190410 0 0 0
57 1 4 0.062038 19.103747 6.611768 28.448219 0 0 0
58 1 3 0.034915 17.026235 5.634974 28.789644 0 0 0
59 1 3 0.027687 14.920245 5.485628 27.577769 0 0 0
60 1 3 0.027687 15.777553 4.893181 26.130436 0 0 0
61 1 2 -0.044235 16.286474 7.846774 27.740880 0 0 0
62 1 2 -0.058306 15.356126 7.882134 28.773014 0 0 0
63 1 2 -0.061493 15.583600 8.682287 29.886616 0 0 0
64 1 2 -0.061741 16.741423 9.447080 29.968085 0 0 0
65 1 2 -0.061493 17.671771 9.411720 28.935951 0 0 0
66 1 2 -0.058306 17.444297 8.611567 27.822348 0 0 0
67 1 4 0.062038 14.456522 7.287906 28.709714 0 0 0
68 1 4 0.061767 14.860739 8.709760 30.688562 0 0 0
69 1 4 0.061758 16.918165 10.068782 30.833330 0 0 0
70 1 4 0.061767 18.571375 10.005948 28.999250 0 0 0
71 1 4 0.062038 18.167158 8.584093 27.020402 0 0 0
72 1 3 0.034915 16.907142 7.006803 25.872198 0 0 0
73 1 3 0.027687 14.007022 7.640152 26.466251 0 0 0
74 1 3 0.027687 14.578832 6.847729 24.974325 0 0 0
75 1 2 -0.044235 16.191681 8.767473 24.111753 0 0 0
76 1 2 -0.058306 15.953324 8.060369 22.939025 0 0 0
77 1 2 -0.061493 16.962302 7.923300 21.992834 0 0 0
78 1 2 -0.061741 18.209636 8.493334 22.219372 0 0 0
79 1 2 -0.061493 18.447992 9.200437 23.392100 0 0 0
80 1 2 -0.058306 17.439015 9.337506 24.338290 0 0 0
81 1 4 0.062038 14.984173 7.617465 22.763011 0 0 0
82 1 4 0.061767 16.777104 7.373896 21.081650 0 0 0
83 1 4 0.061758 18.993589 8.386834 21.484202 0 0 0
84 1 4 0.061767 19.417144 9.643341 23.568114 0 0 0
85 1 4 0.062038 17.624213 9.886910 25.249475 0 0 0
86 1 3 0.034915 15.417439 9.599004 25.926100 0 0 0
87 1 3 0.027687 13.057665 9.563900 25.174405 0 0 0
88 1 3 0.027687 13.592755 8.875447 23.618624 0 0 0
89 1 2 -0.044235 14.656108 11.787298 25.018567 0 0 0
90 1 2 -0.058306 13.819948 12.236397 26.034070 0 0 0
91 1 2 -0.061493 14.332293 13.022445 27.059609 0 0 0
92 1 2 -0.061741 15.680798 13.359394 27.069645 0 0 0
93 1 2 -0.061493 16.516957 12.910295 26.054142 0 0 0
94 1 2 -0.058306 16.004613 12.124247 25.028603 0 0 0
95 1 4 0.062038 12.772189 11.974595 26.026272 0 0 0
96 1 4 0.061767 13.682615 13.371386 27.848633 0 0 0
97 1 4 0.061758 16.078878 13.970137 27.866467 0 0 0
98 1 4 0.061767 17.564716 13.172097 26.061940 0 0 0
99 1 4 0.062038 16.654291 11.775306 24.239579 0 0 0
100 1 3 0.034915 14.821892 10.871880 23.090543 0 0 0
101 1 3 0.027687 13.038480 12.669940 23.247050 0 0 0
102 1 3 0.027687 12.038370 11.467583 24.104290 0 0 0
103 1 2 -0.044244 13.377151 11.398113 20.978030 0 0 0
104 1 2 -0.058306 13.990577 10.388122 20.246096 0 0 0
105 1 2 -0.061493 14.935387 10.707195 19.277785 0 0 0
106 1 2 -0.061741 15.266771 12.036258 19.041407 0 0 0
107 1 2 -0.061493 14.653345 13.046249 19.773340 0 0 0
108 1 2 -0.058306 13.708535 12.727177 20.741652 0 0 0
109 1 4 0.062038 13.733099 9.355468 20.429757 0 0 0
110 1 4 0.061767 15.412006 9.922453 18.709089 0 0 0
111 1 4 0.061758 16.000868 12.284171 18.289050 0 0 0
112 1 4 0.061767 14.910823 14.078903 19.589680 0 0 0
113 1 4 0.062038 13.231916 13.511918 21.310348 0 0 0
114 1 3 0.034906 12.265328 9.968546 22.119493 0 0 0
115 1 3 0.027419 11.138112 12.636422 21.261091 0 0 0
116 1 3 0.027419 10.313947 11.568200 22.427452 0 0 0
117 1 2 -0.047337 10.241636 9.380569 20.832373 0 0 0
118 1 2 -0.058572 11.132000 8.438416 20.330677 0 0 0
119 1 2 -0.061501 11.019790 7.105588 20.708934 0 0 0
120 1 2 -0.061742 10.017215 6.714913 21.588887 0 0 0
121 1 2 -0.061501 9.126851 7.657066 22.090583 0 0 0
122 1 2 -0.058572 9.239062 8.989894 21.712326 0 0 0
123 1 4 0.062029 11.910979 8.741962 19.646973 0 0 0
124 1 4 0.061766 11.711584 6.373555 20.319127 0 0 0
125 1 4 0.061758 9.930030 5.679334 21.882784 0 0 0
126 1 4 0.061766 8.347872 7.353520 22.774287 0 0 0
127 1 4 0.062029 8.547268 9.721927 22.102133 0 0 0
128 1 3 0.031335 11.019501 10.912215 19.554978 0 0 0
129 1 3 0.023554 20.763744 0.678597 31.205248 0 0 0
130 1 3 0.031335 9.374347 11.186970 20.136717 0 0 0
131 2 1 -0.058379 8.166516 27.141498 17.454546 0 -1 0
132 2 1 -0.018134 7.626364 27.012373 16.028902 0 -1 0
133 2 1 -0.039597 7.362158 28.352589 15.339759 0 -1 0
134 2 1 -0.014764 7.100273 28.238495 13.836663 0 -1 0
135 2 1 -0.039327 6.584480 29.528211 13.195187 0 -1 0
136 2 1 -0.014755 7.461847 30.752048 13.466021 0 -1 0
137 2 1 -0.039327 7.156571 31.948746 12.562903 0 -1 0
138 2 1 -0.014755 7.878565 0.235080 12.969069 0 0 0
139 2 1 -0.039327 7.814301 1.343675 11.916555 0 0 0
140 2 1 -0.014755 8.324467 2.699504 12.408853 0 0 0
141 2 1 -0.039327 8.197896 3.823484 11.378537 0 0 0
142 2 1 -0.014755 6.760665 4.291653 11.141711 0 0 0
143 2 1 -0.039335 6.624517 5.355422 10.050492 0 0 0
144 2 1 -0.015007 6.847192 4.824753 8.632851 0 0 0
145 2 1 -0.042196 6.631619 5.869657 7.536219 0 0 0
146 2 1 -0.027132 7.749647 6.909600 7.439098 0 0 0
147 2 3 0.023554 9.104132 27.695979 17.415464 0 -1 0
148 2 3 0.023554 7.436476 27.692292 18.047645 0 -1 0
149 2 2 -0.044513 8.637704 26.249346 15.207270 0 -1 0
150 2 2 -0.058315 9.661542 26.929679 14.558422 0 -1 0
151 2 2 -0.061493 10.592511 26.227289 13.802086 0 -1 0
152 2 2 -0.061741 10.499643 24.844566 13.694597 0 -1 0
153 2 2 -0.061493 9.475806 24.164233 14.343445 0 -1 0
154 2 2 -0.058315 8.544836 24.866623 15.099782 0 -1 0
155 2 4 0.062038 9.733698 28.004024 14.641938 0 -1 0
156 2 4 0.061767 11.388011 26.755893 13.297945 0 -1 0
157 2 4 0.061758 11.222986 24.298825 13.106940 0 -1 0
158 2 4 0.061767 9.403649 23.089888 14.259929 0 -1 0
159 2 4 0.062038 7.749337 24.338019 15.603923 0 -1 0
160 2 3 0.034630 6.688748 26.457892 16.067984 0 -1 0
161 2 3 0.027678 8.234078 28.989914 15.486974 0 -1 0
162 2 3 0.027678 6.488492 28.809234 15.804822 0 -1 0
163 2 2 -0.044235 6.070459 27.156249 13.616829 0 -1 0
164 2 2 -0.058306 6.250556 26.220791 12.604612 0 -1 0
165 2 2 -0.061493 5.302582 25.224551 12.402249 0 -1 0
166 2 2 -0.061741 4.174511 25.163769 13.212102 0 -1 0
167 2 2 -0.061493 3.994414 26.099228 14.224318 0 -1 0
168 2 2 -0.058306 4.942389 27.095468 14.426682 0 -1 0
169 2 4 0.062038 7.127043 26.268016 11.975374 0 -1 0
170 2 4 0.061767 5.442513 24.497720 11.615778 0 -1 0
171 2 4 0.061758 3.437956 24.389712 13.054870 0 -1 0
172 2 4 0.061767 3.117928 26.052002 14.853557 0 -1 0
173 2 4 0.062038 4.802458 27.822299 15.213152 0 -1 0
174 2 3 0.034915 8.034645 27.963737 13.347217 0 -1 0
175 2 3 0.027687 5.587483 29.729422 13.587118 0 -1 0
176 2 3 0.027687 6.533507 29.376556 12.116993 0 -1 0
177 2 2 -0.044235 8.903739 30.356232 13.255367 0 -1 0
178 2 2 -0.058306 9.291845 29.752084 12.065208 0 -1 0
179 2 2 -0.061493 10.619151 29.387723 11.871296 0 -1 0
180 2 2 -0.061741 11.558350 29.627511 12.867542 0 -1 0
181 2 2 -0.061493 11.170244 30.231660 14.057701 0 -1 0
182 2 2 -0.058306 9.842939 30.596020 14.251614 0 -1 0
183 2 4 0.062038 8.562108 29.565774 11.291147 0 -1 0
184 2 4 0.061767 10.920701 28.918313 10.946568 0 -1 0
185 2 4 0.061758 12.589637 29.344411 12.716876 0 -1 0
186 2 4 0.061767 11.899982 30.417970 14.831763 0 -1 0
187 2 4 0.062038 9.541389 31.065431 15.176341 0 -1 0
188 2 3 0.034915 7.310625 31.058185 14.501160 0 -1 0
189 2 3 0.027687 6.083105 32.135223 12.594488 0 -1 0
190 2 3 0.027687 7.457298 31.694842 11.546441 0 -1 0
191 2 2 -0.044235 7.246045 0.751579 14.239206 0 0 0
192 2 2 -0.058306 7.959643 0.724709 15.431748 0 0 0
193 2 2 -0.061493 7.377390 1.200162 16.600947 0 0 0
194 2 2 -0.061741 6.081539 1.702484 16.577604 0 0 0
195 2 2 -0.061493 5.367942 1.729353 15.385062 0 0 0
196 2 2 -0.058306 5.950195 1.253900 14.215863 0 0 0
197 2 4 0.062038 8.966490 0.334416 15.449886 0 0 0
198 2 4 0.061767 7.931839 1.179285 17.527527 0 0 0
199 2 4 0.061758 5.629141 2.071900 17.486047 0 0 0
200 2 4 0.061767 4.361094 2.119646 15.366925 0 0 0
201 2 4 0.062038 5.395745 1.274777 13.289283 0 0 0
202 2 3 0.034915 8.926595 32.995942 13.149474 0 -1 0
203 2 3 0.027687 6.775625 1.461398 11.607696 0 0 0
204 2 3 0.027687 8.420876 1.039975 11.063364 0 0 0
205 2 2 -0.044235 9.782819 2.552665 12.771822 0 0 0
206 2 2 -0.058306 10.706688 2.182611 11.801448 0 0 0
207 2 2 -0.061493 12.049145 2.047441 12.135572 0 0 0
208 2 2 -0.061741 12.467733 2.282326 13.440069 0 0 0
209 2 2 -0.061493 11.543864 2.652380 14.410443 0 0 0
210 2 2 -0.058306 10.201407 2.787550 14.076319 0 0 0
211 2 4 0.062038 10.381455 2.000111 10.787882 0 0 0
212 2 4 0.061767 12.766972 1.759917 11.381612 0 0 0
213 2 4 0.061758 13.510793 2.177302 13.699676 0 0 0
214 2 4 0.061767 11.869097 2.834880 15.424009 0 0 0
215 2 4 0.062038 9.483580 3.075074 14.830279 0 0 0
216 2 3 0.034915 7.750719 2.979904 13.292193 0 0 0
217 2 3 0.027687 8.600711 3.465169 10.431199 0 0 0
218 2 3 0.027687 8.780994 4.675116 11.728993 0 0 0
219 2 2 -0.044235 6.232335 4.868659 12.433234 0 0 0
220 2 2 -0.058306 6.682012 6.106957 12.876526 0 0 0
221 2 2 -0.061493 6.195668 6.638108 14.065412 0 0 0
222 2 2 -0.061741 5.259648 5.930961 14.811005 0 0 0
223 2 2 -0.061493 4.809971 4.692663 14.367712 0 0 0
224 2 2 -0.058306 5.296315 4.161511 13.178827 0 0 0
225 2 4 0.062038 7.409280 6.656395 12.297217 0 0 0
226 2 4 0.061767 6.545058 7.600239 14.409840 0 0 0
227 2 4 0.061758 4.881770 6.343654 15.734743 0 0 0
228 2 4 0.061767 4.082704 4.143224 14.947022 0 0 0
229 2 4 0.062038 4.946926 3.199380 12.834398 0 0 0
230 2 3 0.034915 6.163334 3.427112 10.852116 0 0 0
231 2 3 0.027687 7.359858 6.136916 10.241910 0 0 0
232 2 3 0.027687 5.619260 5.773307 10.104618 0 0 0
233 2 2 -0.044244 5.883681 3.686224 8.397270 0 0 0
234 2 2 -0.058306 6.285814 2.376091 8.629524 0 0 0
235 2 2 -0.061493 5.398873 1.328041 8.412665 0 0 0
236 2 2 -0.061741 4.109800 1.590124 7.963552 0 0 0
237 2 2 -0.061493 3.707667 2.900256 7.731298 0 0 0
238 2 2 -0.058306 4.594608 3.948306 7.948158 0 0 0
239 2 4 0.062038 7.287396 2.172459 8.978475 0 0 0
240 2 4 0.061767 5.711322 0.310097 8.593121 0 0 0
241 2 4 0.061758 3.420666 0.775812 7.795057 0 0 0
242 2 4 0.061767 2.706085 3.103889 7.382347 0 0 0
243 2 4 0.062038 4.282159 4.966251 7.767701 0 0 0
244 2 3 0.034906 7.872368 4.461416 8.561435 0 0 0
245 2 3 0.027419 5.696805 6.391506 7.740907 0 0 0
246 2 3 0.027419 6.563263 5.351541 6.579671 0 0 0
247 2 2 -0.047337 9.007367 6.210505 6.981379 0 0 0
248 2 2 -0.058572 9.262451 6.057238 5.623608 0 0 0
249 2 2 -0.061501 10.420220 5.413700 5.202264 0 0 0
250 2 2 -0.061742 11.322905 4.923429 6.138691 0 0 0
251 2 2 -0.061501 11.067820 5.076696 7.496462 0 0 0
252 2 2 -0.058572 9.910052 5.720234 7.917806 0 0 0
253 2 4 0.062029 8.561085 6.438168 4.896025 0 0 0
254 2 4 0.061766 10.618415 5.294615 4.147306 0 0 0
255 2 4 0.061758 12.222466 4.423414 5.811316 0 0 0
256 2 4 0.061766 11.769187 4.695766 8.224045 0 0 0
257 2 4 0.062029 9.711857 5.839319 8.972764 0 0 0
258 2 3 0.031335 7.904851 7.337510 8.429504 0 0 0
259 2 3 0.023554 8.354741 26.186703 17.945504 0 -1 0
260 2 3 0.031335 7.539316 7.723148 6.744835 0 0 0
261 3 1 -0.058379 5.903306 0.643025 29.823735 0 0 -1
262 3 1 -0.018134 5.229071 1.819330 30.532687 0 0 -1
263 3 1 -0.039597 6.174682 2.641817 31.410317 0 0 -1
264 3 1 -0.014764 5.589043 3.976645 31.875247 0 0 -1
265 3 1 -0.039327 6.542771 4.809091 32.734513 0 0 -1
266 3 1 -0.014755 5.982272 6.172654 0.143701 0 0 0
267 3 1 -0.039327 7.000685 7.082539 0.833516 0 0 0
268 3 1 -0.014755 7.807984 6.391071 1.933988 0 0 0
269 3 1 -0.039327 8.714248 7.334645 2.727243 0 0 0
270 3 1 -0.014755 9.720617 8.100844 1.866395 0 0 0
271 3 1 -0.039327 10.794221 8.836828 2.670511 0 0 0
272 3 1 -0.014755 10.235139 9.811573 3.708876 0 0 0
273 3 1 -0.039335 11.301297 10.664903 4.398827 0 0 0
274 3 1 -0.015007 10.732819 11.792877 5.262197 0 0 0
275 3 1 -0.042196 11.792169 12.573103 6.043175 0 0 0
276 3 1 -0.027132 12.892007 13.176708 5.167437 0 0 0
277 3 3 0.023554 6.699885 1.036236 29.192113 0 0 -1
278 3 3 0.023554 6.325218 32.983662 30.582241 0 -1 -1
279 3 2 -0.044513 4.644588 2.732759 29.481912 0 0 -1
280 3 2 -0.058315 5.482781 3.394460 28.592147 0 0 -1
281 3 2 -0.061493 4.944747 4.235299 27.624877 0 0 -1
282 3 2 -0.061741 3.568519 4.414435 27.547373 0 0 -1
283 3 2 -0.061493 2.730325 3.752734 28.437139 0 0 -1
284 3 2 -0.058315 3.268360 2.911895 29.404408 0 0 -1
285 3 4 0.062038 6.552081 3.255275 28.652366 0 0 -1
286 3 4 0.061767 5.596005 4.749427 26.933549 0 0 -1
287 3 4 0.061758 3.150478 5.067749 26.795826 0 0 -1
288 3 4 0.061767 1.661026 3.891919 28.376920 0 0 -1
289 3 4 0.062038 2.617101 2.397767 30.095736 0 0 -1
290 3 3 0.034630 4.432492 1.426119 31.164309 0 0 -1
291 3 3 0.027678 7.079643 2.846764 30.838353 0 0 -1
292 3 3 0.027678 6.421568 2.051474 32.292724 0 0 -1
293 3 2 -0.044235 4.347987 3.691572 32.686797 0 0 -1
294 3 2 -0.058306 3.106930 4.123680 32.233851 0 0 -1
295 3 2 -0.061493 1.964501 3.861261 32.980907 0 0 -1
296 3 2 -0.061741 2.063129 3.166735 1.180910 0 0 0
297 3 2 -0.061493 3.304186 2.734628 1.633856 0 0 0
298 3 2 -0.058306 4.446615 2.997046 0.886800 0 0 0
299 3 4 0.062038 3.030298 4.663311 31.301475 0 0 -1
300 3 4 0.061767 1.000226 4.197000 32.628977 0 0 -1
301 3 4 0.061758 1.175486 2.962842 1.761356 0 0 0
302 3 4 0.061767 3.380818 2.194996 2.566232 0 0 0
303 3 4 0.062038 5.410889 2.661308 1.238730 0 0 0
304 3 3 0.034915 5.326951 4.560332 30.992798 0 0 -1
305 3 3 0.027687 7.458822 4.972889 32.166956 0 0 -1
306 3 3 0.027687 6.765762 4.245772 0.640629 0 0 0
307 3 2 -0.044235 5.487878 6.873109 31.900706 0 0 -1
308 3 2 -0.058306 6.375870 7.180564 30.876479 0 0 -1
309 3 2 -0.061493 5.920765 7.825353 29.732264 0 0 -1
310 3 2 -0.061741 4.577668 8.162687 29.612277 0 0 -1
311 3 2 -0.061493 3.689676 7.855231 30.636504 0 0 -1
312 3 2 -0.058306 4.144781 7.210442 31.780718 0 0 -1
313 3 4 0.062038 7.419427 6.918463 30.969706 0 0 -1
314 3 4 0.061767 6.610716 8.064240 28.936462 0 0 -1
315 3 4 0.061758 4.224062 8.663674 28.723247 0 0 -1
316 3 4 0.061767 2.646119 8.117332 30.543276 0 0 -1
317 3 4 0.062038 3.454830 6.971556 32.576520 0 0 -1
318 3 3 0.034915 5.151452 6.008298 0.829869 0 0 0
319 3 3 0.027687 6.463663 7.919946 1.279000 0 0 0
320 3 3 0.027687 7.696513 7.449712 0.079124 0 0 0
321 3 2 -0.044235 6.839739 5.745333 2.896082 0 0 0
322 3 2 -0.058306 5.729426 6.451753 3.343603 0 0 0
323 3 2 -0.061493 4.838127 5.857332 4.229238 0 0 0
324 3 2 -0.061741 5.057142 4.556491 4.667354 0 0 0
325 3 2 -0.061493 6.167456 3.850071 4.219833 0 0 0
326 3 2 -0.058306 7.058754 4.444492 3.334198 0 0 0
327 3 4 0.062038 5.559256 7.462478 3.003196 0 0 0
328 3 4 0.061767 3.975438 6.406205 4.576952 0 0 0
329 3 4 0.061758 4.364623 4.094639 5.355474 0 0 0
330 3 4 0.061767 6.337626 2.839346 4.560240 0 0 0
331 3 4 0.062038 7.921444 3.895619 2.986484 0 0 0
332 3 3 0.034915 8.432472 5.627277 1.470594 0 0 0
333 3 3 0.027687 9.268745 6.743161 3.455790 0 0 0
334 3 3 0.027687 8.084450 8.059554 3.242957 0 0 0
335 3 2 -0.044235 10.407477 7.115246 0.951562 0 0 0
336 3 2 -0.058306 10.233661 7.206590 32.575501 0 0 -1
337 3 2 -0.061493 10.865936 6.299317 31.733370 0 0 -1
338 3 2 -0.061741 11.672027 5.300700 32.267300 0 0 -1
339 3 2 -0.061493 11.845843 5.209356 0.643362 0 0 0
340 3 2 -0.058306 11.213568 6.116629 1.485492 0 0 0
341 3 4 0.062038 9.607345 7.982493 32.160649 0 0 -1
342 3 4 0.061767 10.730884 6.370289 30.664200 0 0 -1
343 3 4 0.061758 12.163291 4.595769 31.612983 0 0 -1
344 3 4 0.061767 12.472159 4.433453 1.058214 0 0 0
345 3 4 0.062038 11.348620 6.045657 2.554662 0 0 0
346 3 3 0.034915 9.174229 8.835032 1.274341 0 0 0
347 3 3 0.027687 11.416463 9.399343 1.974457 0 0 0
348 3 3 0.027687 11.400128 8.094712 3.190358 0 0 0
349 3 2 -0.044235 9.264972 10.737164 3.014500 0 0 0
350 3 2 -0.058306 9.648893 11.405696 1.857880 0 0 0
351 3 2 -0.061493 8.755825 12.257730 1.218686 0 0 0
352 3 2 -0.061741 7.478838 12.441232 1.736112 0 0 0
353 3 2 -0.061493 7.094917 11.772700 2.892732 0 0 0
354 3 2 -0.058306 7.987985 10.920666 3.531926 0 0 0
355 3 4 0.062038 10.641084 11.263119 1.455851 0 0 0
356 3 4 0.061767 9.054123 12.777165 0.320017 0 0 0
357 3 4 0.061758 6.784944 13.103244 1.239472 0 0 0
358 3 4 0.061767 6.102726 11.915277 3.294761 0 0 0
359 3 4 0.062038 7.689687 10.401231 4.430595 0 0 0
360 3 3 0.034915 9.712908 9.234761 4.472200 0 0 0
361 3 3 0.027687 11.933414 11.108989 3.629855 0 0 0
362 3 3 0.027687 11.898798 10.014224 5.037348 0 0 0
363 3 2 -0.044244 9.764912 11.189271 6.251598 0 0 0
364 3 2 -0.058306 8.494094 11.732387 6.400419 0 0 0
365 3 2 -0.061493 7.603106 11.176750 7.311193 0 0 0
366 3 2 -0.061741 7.982936 10.077996 8.073144 0 0 0
367 3 2 -0.061493 9.253754 9.534880 7.924323 0 0 0
368 3 2 -0.058306 10.144741 10.090518 7.013549 0 0 0
369 3 4 0.062038 8.198975 12.586095 5.808399 0 0 0
370 3 4 0.061767 6.615709 11.598739 7.426824 0 0 0
371 3 4 0.061758 7.290658 9.646278 8.780795 0 0 0
372 3 4 0.061767 9.548873 8.681172 8.516343 0 0 0
373 3 4 0.062038 11.132139 9.668528 6.897918 0 0 0
374 3 3 0.034906 10.207012 12.490178 4.609971 0 0 0
375 3 3 0.027419 12.258424 11.894520 6.757479 0 0 0
376 3 3 0.027419 11.295457 13.384545 6.575095 0 0 0
377 3 2 -0.047337 12.279391 14.270363 4.325581 0 0 0
378 3 2 -0.058572 11.898067 14.007513 3.015008 0 0 0
379 3 2 -0.061501 11.334136 15.014255 2.240056 0 0 0
380 3 2 -0.061742 11.151527 16.283847 2.775676 0 0 0
381 3 2 -0.061501 11.532851 16.546698 4.086249 0 0 0
382 3 2 -0.058572 12.096782 15.539956 4.861202 0 0 0
383 3 4 0.062029 12.039950 13.021067 2.598843 0 0 0
384 3 4 0.061766 11.037856 14.810025 1.221768 0 0 0
385 3 4 0.061758 10.713365 17.066064 2.173554 0 0 0
386 3 4 0.061766 11.390968 17.533144 4.502415 0 0 0
387 3 4 0.062029 12.393063 15.744185 5.879489 0 0 0
388 3 3 0.031335 13.284753 12.390673 4.522457 0 0 0
389 3 3 0.023554 5.229635 0.057070 29.198495 0 0 -1
390 3 3 0.031335 13.722407 13.603485 5.729929 0 0 0
391 4 1 -0.058379 14.507738 30.172178 14.134061 0 -1 0
392 4 1 -0.018134 15.606284 29.107240 14.132397 0 -1 0
393 4 1 -0.039597 15.982931 28.603884 12.737524 0 -1 0
394 4 1 -0.014764 16.393350 29.712150 11.765823 0 -1 0
395 4 1 -0.039327 17.625625 30.503404 12.208900 0 -1 0
396 4 1 -0.014755 18.107069 31.531381 11.183048 0 -1 0
397 4 1 -0.039327 19.492609 32.107278 11.482251 0 -1 0
398 4 1 -0.014755 19.922166 0.223092 10.527610 0 0 0
399 4 1 -0.039327 21.226065 0.916533 10.927467 0 0 0
400 4 1 -0.014755 21.640336 2.051729 9.989059 0 0 0
401 4 1 -0.039327 22.889027 2.810252 10.443275 0 0 0
402 4 1 -0.014755 23.501171 3.704516 9.363241 0 0 0
403 4 1 -0.039335 24.624759 4.611333 9.869338 0 0 0
404 4 1 -0.015007 24.150769 5.728745 10.800802 0 0 0
405 4 1 -0.042196 25.286617 6.496028 11.480526 0 0 0
406 4 1 -0.027132 25.993262 5.710540 12.587125 0 0 0
407 4 3 0.023554 14.855285 31.022096 13.546737 0 -1 0
408 4 3 0.023554 13.617158 29.744698 13.673378 0 -1 0
409 4 2 -0.044513 15.124819 27.929831 14.946030 0 -1 0
410 4 2 -0.058315 15.814237 27.547773 16.090946 0 -1 0
411 4 2 -0.061493 15.371034 26.463933 16.839920 0 -1 0
412 4 2 -0.061741 14.238413 25.762151 16.443977 0 -1 0
413 4 2 -0.061493 13.548994 26.144209 15.299061 0 -1 0
414 4 2 -0.058315 13.992197 27.228049 14.550087 0 -1 0
415 4 4 0.062038 16.694260 28.093042 16.398585 0 -1 0
416 4 4 0.061767 15.906698 26.167082 17.729495 0 -1 0
417 4 4 0.061758 13.894054 24.920030 17.025914 0 -1 0
418 4 4 0.061767 12.668972 25.598940 14.991422 0 -1 0
419 4 4 0.062038 13.456534 27.524900 13.660512 0 -1 0
420 4 3 0.034630 16.496863 29.534721 14.593080 0 -1 0
421 4 3 0.027678 15.121662 28.083837 12.318159 0 -1 0
422 4 3 0.027678 16.818796 27.911627 12.838568 0 -1 0
423 4 2 -0.044235 16.692931 29.080590 10.427360 0 -1 0
424 4 2 -0.058306 17.890233 28.402247 10.231354 0 -1 0
425 4 2 -0.061493 18.166006 27.820876 8.999260 0 -1 0
426 4 2 -0.061741 17.244477 27.917849 7.963171 0 -1 0
427 4 2 -0.061493 16.047175 28.596192 8.159177 0 -1 0
428 4 2 -0.058306 15.771402 29.177563 9.391271 0 -1 0
429 4 4 0.062038 18.606241 28.326901 11.036373 0 -1 0
430 4 4 0.061767 19.096284 27.293818 8.846967 0 -1 0
431 4 4 0.061758 17.458746 27.466137 7.005860 0 -1 0
432 4 4 0.061767 15.331166 28.671538 7.354158 0 -1 0
433 4 4 0.062038 14.841124 29.704621 9.543564 0 -1 0
434 4 3 0.034915 15.558875 30.406511 11.667765 0 -1 0
435 4 3 0.027687 18.436420 29.798293 12.392016 0 -1 0
436 4 3 0.027687 17.379625 31.030444 13.130753 0 -1 0
437 4 2 -0.044235 17.117055 32.671206 11.155242 0 -1 0
438 4 2 -0.058306 17.029402 0.542126 12.235018 0 0 0
439 4 2 -0.061493 16.118065 1.591368 12.209422 0 0 0
440 4 2 -0.061741 15.294381 1.769690 11.104051 0 0 0
441 4 2 -0.061493 15.382034 0.898770 10.024276 0 0 0
442 4 2 -0.058306 16.293371 32.849528 10.049871 0 -1 0
443 4 4 0.062038 17.669387 0.403573 13.093867 0 0 0
444 4 4 0.061767 16.049961 2.268054 13.048385 0 0 0
445 4 4 0.061758 14.586291 2.584929 11.084164 0 0 0
446 4 4 0.061767 14.742049 1.037323 9.165426 0 0 0
447 4 4 0.062038 16.361475 32.172842 9.210909 0 -1 0
448 4 3 0.034915 18.141630 31.048661 10.206376 0 -1 0
449 4 3 0.027687 20.220628 31.299071 11.412332 0 -1 0
450 4 3 0.027687 19.483705 32.509346 12.495347 0 -1 0
451 4 2 -0.044235 20.106736 32.624899 9.153492 0 -1 0
452 4 2 -0.058306 21.075385 31.650215 8.944181 0 -1 0
453 4 2 -0.061493 21.245287 31.099561 7.679265 0 -1 0
454 4 2 -0.061741 20.446540 31.523590 6.623660 0 -1 0
455 4 2 -0.061493 19.477891 32.498273 6.832971 0 -1 0
456 4 2 -0.058306 19.307989 0.048928 8.097887 0 0 0
457 4 4 0.062038 21.695994 31.320754 9.764364 0 -1 0
458 4 4 0.061767 21.997907 30.342253 7.516635 0 -1 0
459 4 4 0.061758 20.578551 31.095743 5.640847 0 -1 0
460 4 4 0.061767 18.857282 32.827735 6.012788 0 -1 0
461 4 4 0.062038 18.555369 0.806236 8.260517 0 0 0
462 4 3 0.034915 19.131230 0.972620 10.500632 0 0 0
463 4 3 0.027687 22.021289 0.171090 10.933380 0 0 0
464 4 3 0.027687 21.100045 1.329675 11.928233 0 0 0
465 4 2 -0.044235 20.496536 3.033577 9.900767 0 0 0
466 4 2 -0.058306 19.967793 3.375025 8.661435 0 0 0
467 4 2 -0.061493 18.914891 4.278846 8.580160 0 0 0
468 4 2 -0.061741 18.390732 4.841218 9.738216 0 0 0
469 4 2 -0.061493 18.919475 4.499770 10.977548 0 0 0
470 4 2 -0.058306 19.972377 3.595949 11.058824 0 0 0
471 4 4 0.062038 20.375053 2.938074 7.761650 0 0 0
472 4 4 0.061767 18.504069 4.544144 7.617225 0 0 0
473 4 4 0.061758 17.572650 5.543467 9.675067 0 0 0
474 4 4 0.061767 18.512215 4.936721 11.877333 0 0 0
475 4 4 0.062038 20.383199 3.330651 12.021758 0 0 0
476 4 3 0.034915 21.838320 1.626321 9.005225 0 0 0
477 4 3 0.027687 23.639424 2.080899 10.748313 0 0 0
478 4 3 0.027687 22.617459 3.437499 11.292341 0 0 0
479 4 2 -0.044235 24.061884 2.818017 8.277046 0 0 0
480 4 2 -0.058306 25.050525 1.888928 8.579506 0 0 0
481 4 2 -0.061493 25.566678 1.072879 7.579630 0 0 0
482 4 2 -0.061741 25.094190 1.185920 6.277295 0 0 0
483 4 2 -0.061493 24.105550 2.115010 5.974835 0 0 0
484 4 2 -0.058306 23.589397 2.931059 6.974711 0 0 0
485 4 4 0.062038 25.417637 1.801097 9.591392 0 0 0
486 4 4 0.061767 26.334830 0.350996 7.814635 0 0 0
487 4 4 0.061758 25.495230 0.551868 5.500413 0 0 0
488 4 4 0.061767 23.738437 2.202841 4.962949 0 0 0
489 4 4 0.062038 22.821244 3.652941 6.739706 0 0 0
490 4 3 0.034915 22.711696 4.334995 8.954187 0 0 0
491 4 3 0.027687 25.109227 5.068564 9.006592 0 0 0
492 4 3 0.027687 25.342030 3.995688 10.412110 0 0 0
493 4 2 -0.044244 23.337881 6.708450 9.988712 0 0 0
494 4 2 -0.058306 23.962096 7.786695 9.372396 0 0 0
495 4 2 -0.061493 23.213809 8.688544 8.624843 0 0 0
496 4 2 -0.061741 21.841307 8.512147 8.493606 0 0 0
497 4 2 -0.061493 21.217092 7.433903 9.109921 0 0 0
498 4 2 -0.058306 21.965380 6.532054 9.857474 0 0 0
499 4 4 0.062038 25.028500 7.923751 9.474365 0 0 0
500 4 4 0.061767 23.698810 9.526316 8.145980 0 0 0
501 4 4 0.061758 21.259904 9.212864 7.912773 0 0 0
502 4 4 0.061767 20.150688 7.296846 9.007952 0 0 0
503 4 4 0.062038 21.480379 5.694281 10.336338 0 0 0
504 4 3 0.034906 23.526593 5.284915 11.576379 0 0 0
505 4 3 0.027419 24.871359 7.403880 11.918094 0 0 0
506 4 3 0.027419 26.024734 6.756213 10.721851 0 0 0
507 4 2 -0.047337 26.907455 6.656353 13.328601 0 0 0
508 4 2 -0.058572 28.284770 6.561177 13.167216 0 0 0
509 4 2 -0.061501 29.126313 7.431826 13.849767 0 0 0
510 4 2 -0.061742 28.590540 8.397651 14.693704 0 0 0
511 4 2 -0.061501 27.213225 8.492827 14.855089 0 0 0
512 4 2 -0.058572 26.371683 7.622178 14.172538 0 0 0
513 4 4 0.062029 28.701054 5.810751 12.511495 0 0 0
514 4 4 0.061766 30.196457 7.357876 13.724374 0 0 0
515 4 4 0.061758 29.244401 9.074127 15.224031 0 0 0
516 4 4 0.061766 26.796942 9.243253 15.510810 0 0 0
517 4 4 0.062029 25.301539 7.696128 14.297931 0 0 0
518 4 3 0.031335 26.580257 4.918518 12.122109 0 0 0
519 4 3 0.023554 14.239407 30.530778 15.127794 0 -1 0
520 4 3 0.031335 25.315766 5.254442 13.308979 0 0 0
521 5 1 -0.058379 21.992461 27.674005 22.127939 0 0 0
522 5 1 -0.018134 22.221921 26.179598 22.362456 0 0 0
523 5 1 -0.039597 23.413582 25.604852 21.594009 0 0 0
524 5 1 -0.014764 23.751126 24.158227 21.960399 0 0 0
525 5 1 -0.039327 24.235816 23.977845 23.400343 0 0 0
526 5 1 -0.014755 24.818839 22.593661 23.691925 0 0 0
527 5 1 -0.039327 25.215819 22.381028 25.154147 0 0 0
528 5 1 -0.014755 25.715304 20.968503 25.464288 0 0 0
529 5 1 -0.039327 26.836014 20.487847 24.540232 0 0 0
530 5 1 -0.014755 27.176733 19.004293 24.694764 0 0 0
531 5 1 -0.039327 26.099438 18.059260 24.158809 0 0 0
532 5 1 -0.014755 26.359755 16.582550 24.462887 0 0 0
533 5 1 -0.039335 25.360585 15.626772 23.807869 0 0 0
534 5 1 -0.015007 25.485054 14.176816 24.280133 0 0 0
535 5 1 -0.042196 24.683850 13.178438 23.442150 0 0 0
536 5 1 -0.027132 24.709496 11.748313 23.985274 0 0 0
537 5 3 0.023554 22.889417 28.209960 22.438297 0 0 0
538 5 3 0.023554 21.819298 27.829841 21.063124 0 0 0
539 5 2 -0.044513 20.979349 25.437128 21.932510 0 0 0
540 5 2 -0.058315 20.372301 24.536993 22.800467 0 0 0
541 5 2 -0.061493 19.228477 23.853527 22.404690 0 0 0
542 5 2 -0.061741 18.691700 24.070197 21.140955 0 0 0
543 5 2 -0.061493 19.298748 24.970332 20.272998 0 0 0
544 5 2 -0.058315 20.442573 25.653798 20.668776 0 0 0
545 5 4 0.062038 20.789365 24.368646 23.782362 0 0 0
546 5 4 0.061767 18.756814 23.154142 23.079073 0 0 0
547 5 4 0.061758 17.802973 23.539158 20.833444 0 0 0
548 5 4 0.061767 18.881685 25.138679 19.291103 0 0 0
549 5 4 0.062038 20.914236 26.353183 19.994392 0 0 0
550 5 3 0.034630 22.395084 26.023762 23.427270 0 0 0
551 5 3 0.027678 24.286180 26.222997 21.805122 0 0 0
552 5 3 0.027678 23.183473 25.642556 20.529243 0 0 0
553 5 2 -0.044235 24.839577 23.676651 21.031174 0 0 0
554 5 2 -0.058306 26.141755 24.136671 21.188695 0 0 0
555 5 2 -0.061493 27.143707 23.693366 20.333316 0 0 0
556 5 2 -0.061741 26.843480 22.790040 19.320416 0 0 0
557 5 2 -0.061493 25.541302 22.330020 19.162895 0 0 0
558 5 2 -0.058306 24.539350 22.773325 20.018274 0 0 0
559 5 4 0.062038 26.375025 24.838536 21.975697 0 0 0
560 5 4 0.061767 28.155471 24.050792 20.455707 0 0 0
561 5 4 0.061758 27.621975 22.445601 18.655805 0 0 0
562 5 4 0.061767 25.308032 21.628155 18.375894 0 0 0
563 5 4 0.062038 23.527586 22.415899 19.895884 0 0 0
564 5 3 0.034915 22.854735 23.553353 21.823608 0 0 0
565 5 3 0.027687 23.389650 24.139474 24.068159 0 0 0
566 5 3 0.027687 25.008014 24.721747 23.596354 0 0 0
567 5 2 -0.044235 23.782416 21.557645 23.327786 0 0 0
568 5 2 -0.058306 22.495046 21.651271 23.843551 0 0 0
569 5 2 -0.061493 21.540988 20.697588 23.508350 0 0 0
570 5 2 -0.061741 21.874299 19.650277 22.657383 0 0 0
571 5 2 -0.061493 23.161668 19.556651 22.141617 0 0 0
572 5 2 -0.058306 24.115727 20.510335 22.476818 0 0 0
573 5 4 0.062038 22.236071 22.465009 24.504735 0 0 0
574 5 4 0.061767 20.540730 20.770333 23.909089 0 0 0
575 5 4 0.061758 21.133016 18.909286 22.396939 0 0 0
576 5 4 0.061767 23.420644 18.742914 21.480434 0 0 0
577 5 4 0.062038 25.115985 20.437589 22.076079 0 0 0
578 5 3 0.034915 25.706931 22.460242 23.074194 0 0 0
579 5 3 0.027687 24.343511 22.579114 25.776996 0 0 0
580 5 3 0.027687 26.011020 23.085534 25.397925 0 0 0
581 5 2 -0.044235 26.231727 20.950366 26.883118 0 0 0
582 5 2 -0.058306 25.595513 20.173682 27.844416 0 0 0
583 5 2 -0.061493 26.070895 20.156986 29.150491 0 0 0
584 5 2 -0.061741 27.182491 20.916975 29.495269 0 0 0
585 5 2 -0.061493 27.818706 21.693658 28.533971 0 0 0
586 5 2 -0.058306 27.343323 21.710354 27.227896 0 0 0
587 5 4 0.062038 24.731826 19.583188 27.576531 0 0 0
588 5 4 0.061767 25.576570 19.553520 29.897399 0 0 0
589 5 4 0.061758 27.551853 20.904002 30.510061 0 0 0
590 5 4 0.061767 28.682392 22.284153 28.801856 0 0 0
591 5 4 0.062038 27.837648 22.313821 26.480988 0 0 0
592 5 3 0.034915 24.875221 20.280619 25.368495 0 0 0
593 5 3 0.027687 27.731991 21.068551 24.759565 0 0 0
594 5 3 0.027687 26.526766 20.661548 23.509556 0 0 0
595 5 2 -0.044235 28.459239 18.733024 23.945305 0 0 0
596 5 2 -0.058306 29.532680 18.137609 24.597459 0 0 0
597 5 2 -0.061493 30.713266 17.887897 23.907559 0 0 0
598 5 2 -0.061741 30.820410 18.233600 22.565504 0 0 0
599 5 2 -0.061493 29.746969 18.829015 21.913350 0 0 0
600 5 2 -0.058306 28.566384 19.078727 22.603250 0 0 0
601 5 4 0.062038 29.449432 17.869005 25.640206 0 0 0
602 5 4 0.061767 31.547306 17.425272 24.414268 0 0 0
603 5 4 0.061758 31.737699 18.039579 22.029467 0 0 0
604 5 4 0.061767 29.830218 19.097619 20.870603 0 0 0
605 5 4 0.062038 27.732343 19.541351 22.096541 0 0 0
606 5 3 0.034915 27.317618 18.795022 25.755168 0 0 0
607 5 3 0.027687 26.046195 18.180811 23.076917 0 0 0
608 5 3 0.027687 25.146494 18.337651 24.608806 0 0 0
609 5 2 -0.044235 26.289356 16.388135 25.958663 0 0 0
610 5 2 -0.058306 27.454808 16.186994 26.688981 0 0 0
611 5 2 -0.061493 27.390003 16.008029 28.065888 0 0 0
612 5 2 -0.061741 26.159747 16.030205 28.712477 0 0 0
613 5 2 -0.061493 24.994295 16.231346 27.982159 0 0 0
614 5 2 -0.058306 25.059099 16.410311 26.605252 0 0 0
615 5 4 0.062038 28.410690 16.169764 26.186595 0 0 0
616 5 4 0.061767 28.295534 15.851747 28.633329 0 0 0
617 5 4 0.061758 26.109395 15.891153 29.782303 0 0 0
618 5 4 0.061767 24.038412 16.248576 28.484544 0 0 0
619 5 4 0.062038 24.153568 16.566593 26.037811 0 0 0
620 5 3 0.034915 27.357992 16.331031 24.104612 0 0 0
621 5 3 0.027687 25.522220 15.649872 22.730168 0 0 0
622 5 3 0.027687 24.353720 15.975407 24.037599 0 0 0
623 5 2 -0.044244 26.941608 13.783203 24.219965 0 0 0
624 5 2 -0.058306 27.568049 13.262934 25.346460 0 0 0
625 5 2 -0.061493 28.908850 12.900602 25.291073 0 0 0
626 5 2 -0.061741 29.623210 13.058538 24.109190 0 0 0
627 5 2 -0.061493 28.996769 13.578807 22.982695 0 0 0
628 5 2 -0.058306 27.655968 13.941139 23.038082 0 0 0
629 5 4 0.062038 27.013007 13.140221 26.264757 0 0 0
630 5 4 0.061767 29.395581 12.496364 26.166335 0 0 0
631 5 4 0.061758 30.664983 12.777014 24.066156 0 0 0
632 5 4 0.061767 29.551811 13.701520 22.064398 0 0 0
633 5 4 0.062038 27.169236 14.345377 22.162820 0 0 0
634 5 3 0.034906 25.129950 14.121257 25.309169 0 0 0
635 5 3 0.027419 25.098694 13.168333 22.434230 0 0 0
636 5 3 0.027419 23.647030 13.513316 23.411166 0 0 0
637 5 2 -0.047337 24.030457 11.742363 25.333966 0 0 0
638 5 2 -0.058572 24.716868 11.292186 26.455698 0 0 0
639 5 2 -0.061501 24.091792 11.286709 27.697210 0 0 0
640 5 2 -0.061742 22.780306 11.731409 27.816989 0 0 0
641 5 2 -0.061501 22.093896 12.181585 26.695258 0 0 0
642 5 2 -0.058572 22.718971 12.187062 25.453746 0 0 0
643 5 4 0.062029 25.735864 10.946665 26.362632 0 0 0
644 5 4 0.061766 24.625118 10.936932 28.568771 0 0 0
645 5 4 0.061758 22.294636 11.727153 28.781617 0 0 0
646 5 4 0.061766 21.074900 12.527107 26.788324 0 0 0
647 5 4 0.062029 22.185645 12.536840 24.582185 0 0 0
648 5 3 0.031335 25.750212 11.443299 24.094711 0 0 0
649 5 3 0.023554 21.143500 28.083465 22.675394 0 0 0
650 5 3 0.031335 24.206352 11.022405 23.346522 0 0 0
651 6 1 -0.058379 16.987965 19.358697 32.808869 0 0 -1
652 6 1 -0.018134 15.866185 20.300431 32.366548 0 0 -1
653 6 1 -0.039597 15.303318 21.169905 0.492645 0 0 0
654 6 1 -0.014764 14.049235 21.955755 0.104554 0 0 0
655 6 1 -0.039327 13.507377 22.853042 1.219079 0 0 0
656 6 1 -0.014755 12.438599 23.844779 0.755323 0 0 0
657 6 1 -0.039327 11.956116 24.797304 1.851137 0 0 0
658 6 1 -0.014755 10.779195 25.681226 1.433481 0 0 0
659 6 1 -0.039327 10.265457 26.599277 2.544408 0 0 0
660 6 1 -0.014755 8.981298 27.350324 2.186968 0 0 0
661 6 1 -0.039327 7.879274 26.459331 1.610275 0 0 0
662 6 1 -0.014755 6.516313 27.146112 1.502714 0 0 0
663 6 1 -0.039335 5.455447 26.313874 0.779635 0 0 0
664 6 1 -0.015007 4.056578 26.933185 0.802410 0 0 0
665 6 1 -0.042196 3.561482 27.300793 2.202640 0 0 0
666 6 1 -0.027132 2.166846 27.929615 2.224416 0 0 0
667 6 3 0.023554 17.800753 19.962085 0.213094 0 0 0
668 6 3 0.023554 16.595605 18.700953 0.584450 0 0 0
669 6 2 -0.044513 14.740212 19.464545 31.806567 0 0 -1
670 6 2 -0.058315 14.373760 19.596565 30.472257 0 0 -1
671 6 2 -0.061493 13.337268 18.827107 29.956777 0 0 -1
672 6 2 -0.061741 12.667229 17.925628 30.775608 0 0 -1
673 6 2 -0.061493 13.033682 17.793607 32.109918 0 0 -1
674 6 2 -0.058315 14.070174 18.563065 32.625397 0 0 -1
675 6 4 0.062038 14.894365 20.296995 29.836043 0 0 -1
676 6 4 0.061767 13.052542 18.929684 28.920047 0 0 -1
677 6 4 0.061758 11.861898 17.327775 30.375091 0 0 -1
678 6 4 0.061767 12.513077 17.093177 32.746131 0 0 -1
679 6 4 0.062038 14.354900 18.460488 0.662127 0 0 0
680 6 3 0.034630 16.258545 20.958176 31.590967 0 0 -1
681 6 3 0.027678 16.073008 21.881321 0.791919 0 0 0
682 6 3 0.027678 15.053578 20.521393 1.332385 0 0 0
683 6 2 -0.044235 14.385239 22.826568 31.917589 0 0 -1
684 6 2 -0.058306 15.411753 23.759374 32.008377 0 0 -1
685 6 2 -0.061493 15.721055 24.560983 30.915740 0 0 -1
686 6 2 -0.061741 15.003844 24.429786 29.732315 0 0 -1
687 6 2 -0.061493 13.977330 23.496979 29.641527 0 0 -1
688 6 2 -0.058306 13.668028 22.695371 30.734163 0 0 -1
689 6 4 0.062038 15.969010 23.861312 32.927873 0 0 -1
690 6 4 0.061767 16.518634 25.285753 30.986281 0 0 -1
691 6 4 0.061758 15.244165 25.052619 28.883360 0 0 -1
692 6 4 0.061767 13.420073 23.395042 28.722031 0 0 -1
693 6 4 0.062038 12.870449 21.970600 30.663623 0 0 -1
694 6 3 0.034915 13.270934 21.243330 32.831061 0 0 -1
695 6 3 0.027687 14.339977 23.419007 1.636883 0 0 0
696 6 3 0.027687 13.071139 22.216027 1.988501 0 0 0
697 6 2 -0.044235 11.250165 23.059413 0.254398 0 0 0
698 6 2 -0.058306 10.871882 23.146869 31.919725 0 0 -1
699 6 2 -0.061493 9.777893 22.423916 31.458609 0 0 -1
700 6 2 -0.061741 9.062187 21.613508 32.332167 0 0 -1
701 6 2 -0.061493 9.440470 21.526052 0.666840 0 0 0
702 6 2 -0.058306 10.534459 22.249005 1.127956 0 0 0
703 6 4 0.062038 11.427970 23.776538 31.240989 0 0 -1
704 6 4 0.061767 9.483976 22.491867 30.421596 0 0 -1
705 6 4 0.061758 8.212182 21.051789 31.973890 0 0 -1
706 6 4 0.061767 8.884382 20.896383 1.345576 0 0 0
707 6 4 0.062038 10.828376 22.181054 2.164969 0 0 0
708 6 3 0.034915 12.855448 24.441197 32.943767 0 0 -1
709 6 3 0.027687 12.787091 25.444914 2.130747 0 0 0
710 6 3 0.027687 11.647517 24.201297 2.709998 0 0 0
711 6 2 -0.044235 11.222387 26.542664 0.275205 0 0 0
712 6 2 -0.058306 12.277195 27.433630 0.435395 0 0 0
713 6 2 -0.061493 12.685168 28.226609 32.369167 0 0 -1
714 6 2 -0.061741 12.038332 28.128623 31.142748 0 0 -1
715 6 2 -0.061493 10.983524 27.237658 30.982558 0 0 -1
716 6 2 -0.058306 10.575552 26.444678 32.048786 0 0 -1
717 6 4 0.062038 12.779773 27.509763 1.388296 0 0 0
718 6 4 0.061767 13.504731 28.918870 32.493631 0 0 -1
719 6 4 0.061758 12.355317 28.744751 30.314312 0 0 -1
720 6 4 0.061767 10.480946 27.161525 30.029657 0 0 -1
721 6 4 0.062038 9.755988 25.752418 31.924322 0 0 -1
722 6 3 0.034915 9.960409 25.033722 1.119749 0 0 0
723 6 3 0.027687 11.039972 27.333535 2.765976 0 0 0
724 6 3 0.027687 10.070475 25.990643 3.427384 0 0 0
725 6 2 -0.044235 8.452231 28.005639 3.440263 0 0 0
726 6 2 -0.058306 8.261829 29.382031 3.477561 0 0 0
727 6 2 -0.061493 7.774806 29.985268 4.631257 0 0 0
728 6 2 -0.061741 7.478185 29.212112 5.747655 0 0 0
729 6 2 -0.061493 7.668587 27.835720 5.710358 0 0 0
730 6 2 -0.058306 8.155610 27.232483 4.556662 0 0 0
731 6 4 0.062038 8.492296 29.982756 2.610143 0 0 0
732 6 4 0.061767 7.626868 31.054695 4.660236 0 0 0
733 6 4 0.061758 7.099779 29.680814 6.644052 0 0 0
734 6 4 0.061767 7.438119 27.234994 6.577776 0 0 0
735 6 4 0.062038 8.303548 26.163056 4.527683 0 0 0
736 6 3 0.034915 9.226202 28.112469 1.447199 0 0 0
737 6 3 0.027687 7.772302 25.587583 2.255806 0 0 0
738 6 3 0.027687 8.182530 26.144238 0.611851 0 0 0
739 6 2 -0.044235 6.697484 28.440962 0.747305 0 0 0
740 6 2 -0.058306 7.431187 28.460129 32.566877 0 0 -1
741 6 2 -0.061493 7.597960 29.652077 31.871501 0 0 -1
742 6 2 -0.061741 7.031030 30.824857 32.356554 0 0 -1
743 6 2 -0.061493 6.297326 30.805690 0.536982 0 0 0
744 6 2 -0.058306 6.130553 29.613742 1.232358 0 0 0
745 6 4 0.062038 7.871680 27.548904 32.190001 0 0 -1
746 6 4 0.061767 8.168032 29.666969 30.954333 0 0 -1
747 6 4 0.061758 7.160609 31.750975 31.816262 0 0 -1
748 6 4 0.061767 5.856834 31.716914 0.913858 0 0 0
749 6 4 0.062038 5.560481 29.598849 2.149526 0 0 0
750 6 3 0.034915 6.158290 27.354065 2.511017 0 0 0
751 6 3 0.027687 5.403747 25.336074 1.258523 0 0 0
752 6 3 0.027687 5.761401 26.199780 32.739695 0 0 -1
753 6 2 -0.044244 3.089581 25.939362 0.204637 0 0 0
754 6 2 -0.058306 2.331920 26.289214 32.093038 0 0 -1
755 6 2 -0.061493 1.441770 25.374371 31.542769 0 0 -1
756 6 2 -0.061741 1.309282 24.109675 32.104100 0 0 -1
757 6 2 -0.061493 2.066944 23.759823 0.215699 0 0 0
758 6 2 -0.058306 2.957093 24.674667 0.765967 0 0 0
759 6 4 0.062038 2.434860 27.271856 31.656896 0 0 -1
760 6 4 0.061767 0.853084 25.646198 30.679080 0 0 -1
761 6 4 0.061758 0.617655 23.398862 31.676553 0 0 -1
762 6 4 0.061767 1.964003 22.777182 0.651841 0 0 0
763 6 4 0.062038 3.545780 24.402839 1.629656 0 0 0
764 6 3 0.034906 4.074767 27.839918 0.197758 0 0 0
765 6 3 0.027419 4.263626 28.012346 2.637134 0 0 0
766 6 3 0.027419 3.535994 26.392749 2.805056 0 0 0
767 6 2 -0.047337 2.156568 29.090963 1.259395 0 0 0
768 6 2 -0.058572 2.951200 30.204890 1.503989 0 0 0
769 6 2 -0.061501 2.941738 31.273945 0.615659 0 0 0
770 6 2 -0.061742 2.137645 31.229074 32.482733 0 0 -1
771 6 2 -0.061501 1.343012 30.115147 32.238139 0 0 -1
772 6 2 -0.058572 1.352474 29.046092 0.126469 0 0 0
773 6 4 0.062029 3.575963 30.239754 2.384248 0 0 0
774 6 4 0.061766 3.559151 32.139442 0.805703 0 0 0
775 6 4 0.061758 2.130293 32.059706 31.792519 0 0 -1
776 6 4 0.061766 0.718249 30.080282 31.357880 0 0 -1
777 6 4 0.062029 0.735062 28.180594 32.936425 0 0 -1
778 6 3 0.031335 1.447631 27.176289 1.902966 0 0 0
779 6 3 0.023554 17.388962 18.739268 32.006616 0 0 -1
780 6 3 0.031335 1.861462 28.297100 3.204108 0 0 0
781 7 1 -0.058379 31.325201 29.281125 13.938229 0 0 0
782 7 1 -0.018134 30.622756 28.162185 13.166579 0 0 0
783 7 1 -0.039597 31.113298 27.996159 11.726890 0 0 0
784 7 1 -0.014764 30.470282 26.824895 10.981524 0 0 0
785 7 1 -0.039327 30.967857 26.653034 9.544937 0 0 0
786 7 1 -0.014755 30.398537 25.424883 8.831901 0 0 0
787 7 1 -0.039327 30.950471 25.213067 7.420730 0 0 0
788 7 1 -0.014755 30.401542 23.969822 6.717936 0 0 0
789 7 1 -0.039327 31.123118 23.622317 5.414299 0 0 0
790 7 1 -0.014755 30.808794 22.222326 4.883144 0 0 0
791 7 1 -0.039327 31.409493 21.090271 5.718914 0 0 0
792 7 1 -0.014755 31.258223 19.704074 5.089250 0 0 0
793 7 1 -0.039335 29.833920 19.379145 4.634626 0 0 0
794 7 1 -0.015007 29.691345 18.010938 3.964863 0 0 0
795 7 1 -0.042196 28.332352 17.781958 3.300330 0 0 0
796 7 1 -0.027132 27.140010 17.974711 4.239514 0 0 0
797 7 3 0.023554 32.392211 29.059991 13.964479 0 0 0
798 7 3 0.023554 31.155588 30.219068 13.409462 0 0 0
799 7 2 -0.044513 30.857726 26.862833 13.899092 0 0 0
800 7 2 -0.058315 32.140137 26.332793 13.980201 0 0 0
801 7 2 -0.061493 32.356434 25.136701 14.654500 0 0 0
802 7 2 -0.061741 31.290320 24.470649 15.247690 0 0 0
803 7 2 -0.061493 30.007908 25.000689 15.166581 0 0 0
804 7 2 -0.058315 29.791612 26.196781 14.492282 0 0 0
805 7 4 0.062038 32.968486 26.850301 13.519305 0 0 0
806 7 4 0.061767 0.352840 24.724871 14.717520 1 0 0
807 7 4 0.061758 31.458377 23.541311 15.771606 0 0 0
808 7 4 0.061767 29.179560 24.483181 15.627477 0 0 0
809 7 4 0.062038 28.795206 26.608611 14.429261 0 0 0
810 7 3 0.034630 29.555746 28.383320 13.140329 0 0 0
811 7 3 0.027678 32.191187 27.835758 11.749843 0 0 0
812 7 3 0.027678 30.888100 28.912728 11.181649 0 0 0
813 7 2 -0.044235 28.978007 27.052019 10.941185 0 0 0
814 7 2 -0.058306 28.121050 26.152991 11.565262 0 0 0
815 7 2 -0.061493 26.747365 26.362065 11.528129 0 0 0
816 7 2 -0.061741 26.230638 27.470168 10.866917 0 0 0
817 7 2 -0.061493 27.087595 28.369196 10.242839 0 0 0
818 7 2 -0.058306 28.461279 28.160122 10.279973 0 0 0
819 7 4 0.062038 28.522536 25.292019 12.079010 0 0 0
820 7 4 0.061767 26.081528 25.663540 12.013024 0 0 0
821 7 4 0.061758 25.163315 27.632615 10.838065 0 0 0
822 7 4 0.061767 26.686109 29.230168 9.729092 0 0 0
823 7 4 0.062038 29.127116 28.858647 9.795078 0 0 0
824 7 3 0.034915 30.689506 25.909166 11.530598 0 0 0
825 7 3 0.027687 32.053739 26.561332 9.568418 0 0 0
826 7 3 0.027687 30.684523 27.539304 8.977181 0 0 0
827 7 2 -0.044235 30.728234 24.203901 9.656887 0 0 0
828 7 2 -0.058306 32.044583 23.946147 10.021427 0 0 0
829 7 2 -0.061493 32.348079 22.822196 10.780851 0 0 0
830 7 2 -0.061741 31.335226 21.956000 11.175736 0 0 0
831 7 2 -0.061493 30.018878 22.213754 10.811196 0 0 0
832 7 2 -0.058306 29.715382 23.337705 10.051772 0 0 0
833 7 4 0.062038 32.831547 24.619162 9.714610 0 0 0
834 7 4 0.061767 0.370853 22.621927 11.064091 1 0 0
835 7 4 0.061758 31.571036 21.082715 11.765793 0 0 0
836 7 4 0.061767 29.231913 21.540738 11.118013 0 0 0
837 7 4 0.062038 28.692607 23.537974 9.768533 0 0 0
838 7 3 0.034915 29.317106 25.541740 8.761537 0 0 0
839 7 3 0.027687 32.034019 25.116243 7.488916 0 0 0
840 7 3 0.027687 30.695021 26.085759 6.819686 0 0 0
841 7 2 -0.044235 28.944406 24.209426 6.402590 0 0 0
842 7 2 -0.058306 27.962083 23.472507 7.053814 0 0 0
843 7 2 -0.061493 26.620745 23.693069 6.763529 0 0 0
844 7 2 -0.061741 26.261730 24.650550 5.822021 0 0 0
845 7 2 -0.061493 27.244053 25.387469 5.170797 0 0 0
846 7 2 -0.058306 28.585391 25.166907 5.461082 0 0 0
847 7 4 0.062038 28.241030 22.728564 7.785346 0 0 0
848 7 4 0.061767 25.857501 23.120498 7.269516 0 0 0
849 7 4 0.061758 25.219539 24.821922 5.596476 0 0 0
850 7 4 0.061767 26.965106 26.131411 4.439265 0 0 0
851 7 4 0.062038 29.348634 25.739477 4.955095 0 0 0
852 7 3 0.034915 30.497676 23.123065 7.397539 0 0 0
853 7 3 0.027687 32.196799 23.687487 5.590544 0 0 0
854 7 3 0.027687 30.828668 24.348854 4.656973 0 0 0
855 7 2 -0.044235 31.355280 22.115279 3.479579 0 0 0
856 7 2 -0.058306 32.720310 21.949946 3.275967 0 0 0
857 7 2 -0.061493 0.223367 21.851406 1.983944 1 0 0
858 7 2 -0.061741 32.361393 21.918200 0.895532 0 0 0
859 7 2 -0.061493 30.996363 22.083534 1.099144 0 0 0
860 7 2 -0.058306 30.493307 22.182073 2.391167 0 0 0
861 7 4 0.062038 0.390045 21.898048 4.121640 1 0 0
862 7 4 0.061767 1.283966 21.722946 1.825743 1 0 0
863 7 4 0.061758 32.752258 21.841637 32.891658 0 0 -1
864 7 4 0.061767 30.326629 22.135431 0.253471 0 0 0
865 7 4 0.062038 29.432708 22.310534 2.549369 0 0 0
866 7 3 0.034915 29.726007 22.098050 4.868075 0 0 0
867 7 3 0.027687 30.911989 21.080855 6.688708 0 0 0
868 7 3 0.027687 32.472647 21.290858 5.851457 0 0 0
869 7 2 -0.044235 31.675668 18.672777 6.110164 0 0 0
870 7 2 -0.058306 32.650011 17.734065 5.791454 0 0 0
871 7 2 -0.061493 0.034281 16.784725 6.731236 1 0 0
872 7 2 -0.061741 32.444209 16.774097 7.989728 0 0 0
873 7 2 -0.061493 31.469866 17.712808 8.308438 0 0 0
874 7 2 -0.058306 31.085595 18.662148 7.368656 0 0 0
875 7 4 0.062038 0.108484 17.742323 4.813633 1 0 0
876 7 4 0.061767 0.791325 16.055366 6.483605 1 0 0
877 7 4 0.061758 32.742779 16.036480 8.719918 0 0 0
878 7 4 0.061767 31.011392 17.704550 9.286259 0 0 0
879 7 4 0.062038 30.328552 19.391507 7.616287 0 0 0
880 7 3 0.034915 31.914497 19.650207 4.220629 0 0 0
881 7 3 0.027687 29.520472 20.142289 3.922263 0 0 0
882 7 3 0.027687 29.183218 19.400782 5.508822 0 0 0
883 7 2 -0.044244 30.761773 17.888414 2.906907 0 0 0
884 7 2 -0.058306 31.602060 16.781240 2.893362 0 0 0
885 7 2 -0.061493 32.587420 16.668454 1.919481 0 0 0
886 7 2 -0.061741 32.732494 17.662842 0.959145 0 0 0
887 7 2 -0.061493 31.892208 18.770016 0.972689 0 0 0
888 7 2 -0.058306 30.906847 18.882802 1.946570 0 0 0
889 7 4 0.062038 31.489340 16.008622 3.639523 0 0 0
890 7 4 0.061767 0.240305 15.808203 1.908958 1 0 0
891 7 4 0.061758 0.498098 17.575209 0.202461 1 0 0
892 7 4 0.061767 32.004927 19.542634 0.226529 0 0 0
893 7 4 0.062038 30.253963 19.743053 1.957094 0 0 0
894 7 3 0.034906 29.833675 17.242425 4.724620 0 0 0
895 7 3 0.027419 28.305935 16.760721 2.920227 0 0 0
896 7 3 0.027419 28.233409 18.485955 2.474075 0 0 0
897 7 2 -0.047337 25.873858 17.877234 3.422533 0 0 0
898 7 2 -0.058572 25.137723 16.698168 3.419521 0 0 0
899 7 2 -0.061501 23.972193 16.608438 2.667466 0 0 0
900 7 2 -0.061742 23.542797 17.697774 1.918422 0 0 0
901 7 2 -0.061501 24.278932 18.876840 1.921434 0 0 0
902 7 2 -0.058572 25.444462 18.966570 2.673489 0 0 0
903 7 4 0.062029 25.471354 15.851778 4.001512 0 0 0
904 7 4 0.061766 23.400232 15.692329 2.665126 0 0 0
905 7 4 0.061758 22.637205 17.628056 1.334091 0 0 0
906 7 4 0.061766 23.945301 19.723231 1.339443 0 0 0
907 7 4 0.062029 26.016423 19.882679 2.675829 0 0 0
908 7 3 0.031335 27.214885 18.965634 4.687358 0 0 0
909 7 3 0.023554 30.975731 29.399405 14.963890 0 0 0
910 7 3 0.031335 27.085260 17.240188 5.042994 0 0 0
911 8 1 -0.058379 27.475356 30.279993 22.815568 0 0 0
912 8 1 -0.018134 27.736535 31.596894 23.549365 0 0 0
913 8 1 -0.039597 29.047721 32.279630 23.154951 0 0 0
914 8 1 -0.014764 29.017022 32.934559 21.772553 0 0 0
915 8 1 -0.039327 30.379985 0.435985 21.291091 0 1 0
916 8 1 -0.014755 31.459146 32.352602 21.240183 0 0 0
917 8 1 -0.039327 31.132584 31.192770 20.297291 0 0 0
918 8 1 -0.014755 32.287986 30.210218 20.095947 0 0 0
919 8 1 -0.039327 32.883581 29.674440 21.399445 0 0 0
920 8 1 -0.014755 0.985049 28.631797 21.198045 1 0 0
921 8 1 -0.039327 1.765801 28.297582 22.470691 1 0 0
922 8 1 -0.014755 0.882131 27.930938 23.664675 1 0 0
923 8 1 -0.039335 1.661962 27.619714 24.943700 1 0 0
924 8 1 -0.015007 2.632887 28.724578 25.364984 1 0 0
925 8 1 -0.042196 3.525748 28.350010 26.549635 1 0 0
926 8 1 -0.027132 4.404652 29.496567 27.053457 1 0 0
927 8 3 0.023554 27.444788 30.485630 21.745578 0 0 0
928 8 3 0.023554 28.295768 29.597320 23.036888 0 0 0
929 8 2 -0.044513 27.778881 31.312020 25.031645 0 0 0
930 8 2 -0.058315 26.641504 31.500004 25.808263 0 0 0
931 8 2 -0.061493 26.680485 31.237769 27.172746 0 0 0
932 8 2 -0.061741 27.856843 30.787550 27.760610 0 0 0
933 8 2 -0.061493 28.994220 30.599565 26.983992 0 0 0
934 8 2 -0.058315 28.955239 30.861800 25.619509 0 0 0
935 8 4 0.062038 25.727499 31.849814 25.351505 0 0 0
936 8 4 0.061767 25.796768 31.383828 27.776162 0 0 0
937 8 4 0.061758 27.887131 30.583799 28.820784 0 0 0
938 8 4 0.061767 29.908225 30.249755 27.440750 0 0 0
939 8 4 0.062038 29.838956 30.715741 25.016094 0 0 0
940 8 3 0.034630 26.916123 32.279567 23.328045 0 0 0
941 8 3 0.027678 29.838265 31.529219 23.159726 0 0 0
942 8 3 0.027678 29.266577 0.050959 23.893365 0 1 0
943 8 2 -0.044235 28.072605 1.111478 21.827666 0 1 0
944 8 2 -0.058306 26.989509 1.174731 20.958758 0 1 0
945 8 2 -0.061493 26.120145 2.258121 21.009492 0 1 0
946 8 2 -0.061741 26.333878 3.278257 21.929133 0 1 0
947 8 2 -0.061493 27.416974 3.215004 22.798041 0 1 0
948 8 2 -0.058306 28.286338 2.131615 22.747307 0 1 0
949 8 4 0.062038 26.823443 0.382107 20.244217 0 1 0
950 8 4 0.061767 25.278602 2.307267 20.334369 0 1 0
951 8 4 0.061758 25.658401 4.120027 21.968552 0 1 0
952 8 4 0.061767 27.583040 4.007628 23.512582 0 1 0
953 8 4 0.062038 29.127881 2.082468 23.422430 0 1 0
954 8 3 0.034915 28.650405 32.200463 21.055060 0 0 0
955 8 3 0.027687 30.714873 1.219776 21.970519 0 1 0
956 8 3 0.027687 30.258579 0.844330 20.287789 0 1 0
957 8 2 -0.044235 32.747561 32.989826 20.777546 0 0 0
958 8 2 -0.058306 32.920632 0.313437 19.436866 0 1 0
959 8 2 -0.061493 1.106656 0.900021 19.010994 1 1 0
960 8 2 -0.061741 2.119609 1.162992 19.925802 1 1 0
961 8 2 -0.061493 1.946537 0.839381 21.266481 1 1 0
962 8 2 -0.058306 0.760513 0.252797 21.692353 1 1 0
963 8 4 0.062038 32.133590 0.109114 18.726080 0 1 0
964 8 4 0.061767 1.241129 1.151460 17.969315 1 1 0
965 8 4 0.061758 3.041124 1.618755 19.594908 1 1 0
966 8 4 0.061767 2.733580 1.043704 21.977267 1 1 0
967 8 4 0.062038 0.626041 0.001358 22.734032 1 1 0
968 8 3 0.034915 31.586521 31.950126 22.245116 0 0 0
969 8 3 0.027687 30.864134 31.607782 19.325797 0 0 0
970 8 3 0.027687 30.286262 30.644402 20.710971 0 0 0
971 8 2 -0.044235 31.777512 29.038168 19.292321 0 0 0
972 8 2 -0.058306 32.251807 28.819417 18.004186 0 0 0
973 8 2 -0.061493 31.781900 27.740509 17.264425 0 0 0
974 8 2 -0.061741 30.837698 26.880354 17.812799 0 0 0
975 8 2 -0.061493 30.363402 27.099105 19.100934 0 0 0
976 8 2 -0.058306 30.833309 28.178012 19.840695 0 0 0
977 8 4 0.062038 32.985432 29.487739 17.578112 0 0 0
978 8 4 0.061767 32.150418 27.570544 16.263572 0 0 0
979 8 4 0.061758 30.472590 26.042066 17.238020 0 0 0
980 8 4 0.061767 29.629777 26.430783 19.527008 0 0 0
981 8 4 0.062038 30.464792 28.347977 20.841548 0 0 0
982 8 3 0.034915 0.077576 30.720193 19.544065 1 0 0
983 8 3 0.027687 32.081601 29.216368 21.978322 0 0 0
984 8 3 0.027687 0.305029 30.513790 21.952594 1 0 0
985 8 2 -0.044235 1.957543 29.163263 20.172423 1 0 0
986 8 2 -0.058306 2.178986 28.459412 18.994435 1 0 0
987 8 2 -0.061493 3.074195 28.948643 18.050319 1 0 0
988 8 2 -0.061741 3.747961 30.141724 18.284192 1 0 0
989 8 2 -0.061493 3.526518 30.845575 19.462181 1 0 0
990 8 2 -0.058306 2.631309 30.356345 20.406296 1 0 0
991 8 4 0.062038 1.655485 27.532414 18.812721 1 0 0
992 8 4 0.061767 3.246252 28.401766 17.135048 1 0 0
993 8 4 0.061758 4.443519 30.521846 17.550635 1 0 0
994 8 4 0.061767 4.050019 31.772573 19.643895 1 0 0
995 8 4 0.062038 2.459252 30.903221 21.321568 1 0 0
996 8 3 0.034915 0.524303 27.715257 20.829579 1 0 0
997 8 3 0.027687 2.363641 29.167437 22.742793 1 0 0
998 8 3 0.027687 2.419984 27.452120 22.257760 1 0 0
999 8 2 -0.044235 0.071618 26.711309 23.296335 1 0 0
1000 8 2 -0.058306 31.682910 26.769829 23.309210 0 0 0
1001 8 2 -0.061493 30.936810 25.647124 22.970141 0 0 0
1002 8 2 -0.061741 31.579417 24.465900 22.618197 0 0 0
1003 8 2 -0.061493 32.968125 24.407380 22.605322 0 0 0
1004 8 2 -0.058306 0.714225 25.530085 22.944391 1 0 0
1005 8 4 0.062038 31.183618 27.687615 23.582663 0 0 0
1006 8 4 0.061767 29.857814 25.692593 22.980145 0 0 0
1007 8 4 0.061758 30.999713 23.593582 22.354748 0 0 0
1008 8 4 0.061767 0.467417 23.489594 22.331869 1 0 0
1009 8 4 0.062038 1.793222 25.484616 22.934387 1 0 0
1010 8 3 0.034915 0.215872 28.769645 23.866595 1 0 0
1011 8 3 0.027687 2.234024 26.706269 24.781027 1 0 0
1012 8 3 0.027687 0.946153 27.467941 25.751588 1 0 0
1013 8 2 -0.044244 1.826322 29.942560 25.747177 1 0 0
1014 8 2 -0.058306 1.885068 31.089027 24.963429 1 0 0
1015 8 2 -0.061493 1.142601 32.210216 25.315250 1 0 0
1016 8 2 -0.061741 0.341387 32.184937 26.450819 1 0 0
1017 8 2 -0.061493 0.282640 31.038470 27.234567 1 0 0
1018 8 2 -0.058306 1.025107 29.917281 26.882746 1 0 0
1019 8 4 0.062038 2.507594 31.108668 24.081117 1 0 0
1020 8 4 0.061767 1.188246 0.100997 24.706295 1 1 0
1021 8 4 0.061758 32.764505 0.056077 26.724176 0 1 0
1022 8 4 0.061767 32.660114 31.018829 28.116880 0 0 0
1023 8 4 0.062038 0.979462 29.026501 27.491702 1 0 0
1024 8 3 0.034906 3.273831 28.958240 24.514871 1 0 0
1025 8 3 0.027419 4.176069 27.531311 26.241553 1 0 0
1026 8 3 0.027419 2.885927 28.024480 27.369854 1 0 0
1027 8 2 -0.047337 5.410834 29.829066 25.977752 1 0 0
1028 8 2 -0.058572 5.469153 31.115425 25.454322 1 0 0
1029 8 2 -0.061501 6.395373 31.421501 24.464103 1 0 0
1030 8 2 -0.061742 7.263274 30.441217 23.997314 1 0 0
1031 8 2 -0.061501 7.204955 29.154858 24.520744 1 0 0
1032 8 2 -0.058572 6.278735 28.848782 25.510963 1 0 0
1033 8 4 0.062029 4.794813 31.877084 25.817007 1 0 0
1034 8 4 0.061766 6.440686 32.420974 24.057409 1 0 0
1035 8 4 0.061758 7.982928 30.679031 23.227935 1 0 0
1036 8 4 0.061766 7.879295 28.393199 24.158059 1 0 0
1037 8 4 0.062029 6.233422 27.849309 25.917656 1 0 0
1038 8 3 0.031335 3.765755 30.359619 27.240677 1 0 0
1039 8 3 0.023554 26.541243 29.793599 23.096556 0 0 0
1040 8 3 0.031335 4.948005 29.268701 27.970487 1 0 0
1041 9 1 -0.058379 11.623365 17.961074 25.732377 0 0 0
1042 9 1 -0.018134 10.112612 17.723626 25.778669 0 0 0
1043 9 1 -0.039597 9.624537 16.632866 24.823197 0 0 0
1044 9 1 -0.014764 8.181581 16.188586 25.070975 0 0 0
1045 9 1 -0.039327 7.577225 15.370798 23.927788 0 0 0
1046 9 1 -0.014755 6.194035 14.795077 24.237997 0 0 0
1047 9 1 -0.039327 5.545642 14.064535 23.060374 0 0 0
1048 9 1 -0.014755 5.568130 14.853795 21.749854 0 0 0
1049 9 1 -0.039327 5.074147 16.295700 21.883236 0 0 0
1050 9 1 -0.014755 4.970346 17.043563 20.552512 0 0 0
1051 9 1 -0.039327 6.310871 17.235908 19.840546 0 0 0
1052 9 1 -0.014755 6.218608 18.052874 18.550215 0 0 0
1053 9 1 -0.039335 7.516474 18.086322 17.740694 0 0 0
1054 9 1 -0.015007 8.745162 18.502963 18.551641 0 0 0
1055 9 1 -0.042196 9.954449 18.886560 17.696433 0 0 0
1056 9 1 -0.027132 11.258117 19.019517 18.486161 0 0 0
1057 9 3 0.023554 12.123666 17.028800 25.994413 0 0 0
1058 9 3 0.023554 11.892349 18.251465 24.716788 0 0 0
1059 9 2 -0.044513 9.739982 17.321341 27.185585 0 0 0
1060 9 2 -0.058315 9.828930 15.989775 27.574326 0 0 0
1061 9 2 -0.061493 9.485913 15.619460 28.869435 0 0 0
1062 9 2 -0.061741 9.053949 16.580711 29.775803 0 0 0
1063 9 2 -0.061493 8.965002 17.912278 29.387062 0 0 0
1064 9 2 -0.058315 9.308018 18.282593 28.091953 0 0 0
1065 9 4 0.062038 10.164557 15.242903 26.870098 0 0 0
1066 9 4 0.061767 9.555024 14.584862 29.171478 0 0 0
1067 9 4 0.061758 8.787433 16.292984 30.782074 0 0 0
1068 9 4 0.061767 8.629375 18.659149 30.091290 0 0 0
1069 9 4 0.062038 9.238908 19.317191 27.789910 0 0 0
1070 9 3 0.034630 9.612310 18.655900 25.516633 0 0 0
1071 9 3 0.027678 10.273386 15.764389 24.936521 0 0 0
1072 9 3 0.027678 9.693974 17.015044 23.804758 0 0 0
1073 9 2 -0.044235 7.334197 17.422588 25.269168 0 0 0
1074 9 2 -0.058306 6.475621 17.508425 26.358928 0 0 0
1075 9 2 -0.061493 5.695579 18.644361 26.541371 0 0 0
1076 9 2 -0.061741 5.774114 19.694459 25.634052 0 0 0
1077 9 2 -0.061493 6.632690 19.608621 24.544291 0 0 0
1078 9 2 -0.058306 7.412732 18.472685 24.361849 0 0 0
1079 9 4 0.062038 6.414601 16.692522 27.063895 0 0 0
1080 9 4 0.061767 5.028484 18.711055 27.388091 0 0 0
1081 9 4 0.061758 5.168038 20.577056 25.775806 0 0 0
1082 9 4 0.061767 6.693710 20.424524 23.839324 0 0 0
1083 9 4 0.062038 8.079827 18.405991 23.515128 0 0 0
1084 9 3 0.034915 8.162451 15.578778 25.974229 0 0 0
1085 9 3 0.027687 8.250380 14.542222 23.707735 0 0 0
1086 9 3 0.027687 7.489929 16.017286 23.054556 0 0 0
1087 9 2 -0.044235 6.333730 13.818620 25.381289 0 0 0
1088 9 2 -0.058306 5.552703 13.967134 26.521482 0 0 0
1089 9 2 -0.061493 5.681296 13.068276 27.573916 0 0 0
1090 9 2 -0.061741 6.590918 12.020904 27.486158 0 0 0
1091 9 2 -0.061493 7.371945 11.872390 26.345965 0 0 0
1092 9 2 -0.058306 7.243351 12.771248 25.293530 0 0 0
1093 9 4 0.062038 4.845947 14.780919 26.589668 0 0 0
1094 9 4 0.061767 5.074455 13.183668 28.459821 0 0 0
1095 9 4 0.061758 6.690832 11.322511 28.303876 0 0 0
1096 9 4 0.061767 8.078701 11.058605 26.277778 0 0 0
1097 9 4 0.062038 7.850193 12.655856 24.407625 0 0 0
1098 9 3 0.034915 5.540461 15.616397 24.531893 0 0 0
1099 9 3 0.027687 4.506529 13.858286 23.316901 0 0 0
1100 9 3 0.027687 6.080100 13.127548 22.903816 0 0 0
1101 9 2 -0.044235 4.684848 14.141513 20.753577 0 0 0
1102 9 2 -0.058306 5.252016 13.333432 19.775096 0 0 0
1103 9 2 -0.061493 4.438928 12.677755 18.857994 0 0 0
1104 9 2 -0.061741 3.058672 12.830160 18.919373 0 0 0
1105 9 2 -0.061493 2.491504 13.638241 19.897854 0 0 0
1106 9 2 -0.058306 3.304592 14.293918 20.814956 0 0 0
1107 9 4 0.062038 6.324444 13.215017 19.727406 0 0 0
1108 9 4 0.061767 4.879605 12.049893 18.097735 0 0 0
1109 9 4 0.061758 2.426921 12.320713 18.206804 0 0 0
1110 9 4 0.061767 1.419076 13.756656 19.945544 0 0 0
1111 9 4 0.062038 2.863915 14.921780 21.575215 0 0 0
1112 9 3 0.034915 6.594234 14.877022 21.382879 0 0 0
1113 9 3 0.027687 5.769092 16.836619 22.525542 0 0 0
1114 9 3 0.027687 4.085697 16.276858 22.342268 0 0 0
1115 9 2 -0.044235 4.377518 18.406168 20.820770 0 0 0
1116 9 2 -0.058306 5.153934 19.398622 21.407552 0 0 0
1117 9 2 -0.061493 4.608218 20.652941 21.654491 0 0 0
1118 9 2 -0.061741 3.286086 20.914806 21.314648 0 0 0
1119 9 2 -0.061493 2.509669 19.922352 20.727866 0 0 0
1120 9 2 -0.058306 3.055385 18.668033 20.480927 0 0 0
1121 9 4 0.062038 6.181202 19.195159 21.671602 0 0 0
1122 9 4 0.061767 5.211477 21.424056 22.110408 0 0 0
1123 9 4 0.061758 2.862076 21.889384 21.506515 0 0 0
1124 9 4 0.061767 1.482401 20.125815 20.463816 0 0 0
1125 9 4 0.062038 2.452127 17.896918 20.025010 0 0 0
1126 9 3 0.034915 4.311821 16.477837 19.893423 0 0 0
1127 9 3 0.027687 6.710712 16.252320 19.594009 0 0 0
1128 9 3 0.027687 6.988811 17.749640 20.522144 0 0 0
1129 9 2 -0.044235 5.137193 17.450579 17.685412 0 0 0
1130 9 2 -0.058306 5.124716 16.082405 17.440370 0 0 0
1131 9 2 -0.061493 4.129242 15.527975 16.644294 0 0 0
1132 9 2 -0.061741 3.146244 16.341718 16.093260 0 0 0
1133 9 2 -0.061493 3.158721 17.709891 16.338302 0 0 0
1134 9 2 -0.058306 4.154195 18.264322 17.134379 0 0 0
1135 9 4 0.062038 5.888484 15.450145 17.868511 0 0 0
1136 9 4 0.061767 4.119548 14.464934 16.453901 0 0 0
1137 9 4 0.061758 2.372782 15.910937 15.474726 0 0 0
1138 9 4 0.061767 2.394953 18.342152 15.910161 0 0 0
1139 9 4 0.062038 4.163889 19.327363 17.324771 0 0 0
1140 9 3 0.034915 5.953539 19.077027 18.812798 0 0 0
1141 9 3 0.027687 7.390542 18.795830 16.922868 0 0 0
1142 9 3 0.027687 7.694445 17.088565 17.339561 0 0 0
1143 9 2 -0.044244 8.369746 19.693668 19.400985 0 0 0
1144 9 2 -0.058306 8.530111 19.641420 20.780715 0 0 0
1145 9 2 -0.061493 8.184530 20.737499 21.562562 0 0 0
1146 9 2 -0.061741 7.678583 21.885825 20.964679 0 0 0
1147 9 2 -0.061493 7.518217 21.938073 19.584950 0 0 0
1148 9 2 -0.058306 7.863799 20.841994 18.803103 0 0 0
1149 9 4 0.062038 8.923221 18.749195 21.245257 0 0 0
1150 9 4 0.061767 8.309130 20.696903 22.634582 0 0 0
1151 9 4 0.061758 7.410073 22.737455 21.572157 0 0 0
1152 9 4 0.061767 7.125108 22.830298 19.120408 0 0 0
1153 9 4 0.062038 7.739199 20.882590 17.731083 0 0 0
1154 9 3 0.034906 9.030752 17.668306 19.191864 0 0 0
1155 9 3 0.027419 9.745216 19.843953 17.219234 0 0 0
1156 9 3 0.027419 10.092684 18.117703 16.936269 0 0 0
1157 9 2 -0.047337 12.271388 19.718944 17.611985 0 0 0
1158 9 2 -0.058572 12.927568 20.851985 18.078616 0 0 0
1159 9 2 -0.061501 13.860314 21.495829 17.273911 0 0 0
1160 9 2 -0.061742 14.136879 21.006631 16.002574 0 0 0
1161 9 2 -0.061501 13.480699 19.873590 15.535942 0 0 0
1162 9 2 -0.058572 12.547953 19.229746 16.340648 0 0 0
1163 9 4 0.062029 12.712683 21.232081 19.066417 0 0 0
1164 9 4 0.061766 14.370152 22.376177 17.636473 0 0 0
1165 9 4 0.061758 14.861603 21.506884 15.377335 0 0 0
1166 9 4 0.061766 13.695584 19.493494 14.548141 0 0 0
1167 9 4 0.062029 12.038115 18.349398 15.978086 0 0 0
1168 9 3 0.031335 11.059711 19.619882 19.374022 0 0 0
1169 9 3 0.023554 11.971079 18.738151 26.413072 0 0 0
1170 9 3 0.031335 11.682056 18.067480 18.805537 0 0 0
1171 10 1 -0.058379 17.861659 13.481679 17.235594 0 0 0
1172 10 1 -0.018134 17.985936 15.006278 17.268080 0 0 0
1173 10 1 -0.039597 19.428991 15.513803 17.237864 0 0 0
1174 10 1 -0.014764 20.207370 15.253526 18.529096 0 0 0
1175 10 1 -0.039327 21.605926 15.873661 18.548403 0 0 0
1176 10 1 -0.014755 22.475085 15.486151 17.350363 0 0 0
1177 10 1 -0.039327 23.889011 16.069169 17.392826 0 0 0
1178 10 1 -0.014755 23.951799 17.570849 17.106618 0 0 0
1179 10 1 -0.039327 23.645839 17.940806 15.653889 0 0 0
1180 10 1 -0.014755 23.414178 19.436216 15.428097 0 0 0
1181 10 1 -0.039327 23.190859 19.817137 13.963199 0 0 0
1182 10 1 -0.014755 22.770517 21.273605 13.756045 0 0 0
1183 10 1 -0.039335 23.649784 22.285902 14.492962 0 0 0
1184 10 1 -0.015007 23.390946 23.740553 14.095603 0 0 0
1185 10 1 -0.042196 24.284490 24.751254 14.817380 0 0 0
1186 10 1 -0.027132 24.182651 26.175612 14.268079 0 0 0
1187 10 3 0.023554 18.331583 13.120259 16.320910 0 0 0
1188 10 3 0.023554 18.383753 13.078031 18.103110 0 0 0
1189 10 2 -0.044513 17.262669 15.565461 16.066290 0 0 0
1190 10 2 -0.058315 17.872663 15.547152 14.817422 0 0 0
1191 10 2 -0.061493 17.206873 16.061897 13.711139 0 0 0
1192 10 2 -0.061741 15.931090 16.594950 13.853724 0 0 0
1193 10 2 -0.061493 15.321096 16.613259 15.102593 0 0 0
1194 10 2 -0.058315 15.986885 16.098514 16.208876 0 0 0
1195 10 4 0.062038 18.863919 15.132981 14.706636 0 0 0
1196 10 4 0.061767 17.680825 16.047671 12.740795 0 0 0
1197 10 4 0.061758 15.413785 16.994896 12.994166 0 0 0
1198 10 4 0.061767 14.329839 17.027430 15.213379 0 0 0
1199 10 4 0.062038 15.512933 16.112739 17.179220 0 0 0
1200 10 3 0.034630 17.516012 15.367698 18.182763 0 0 0
1201 10 3 0.027678 19.408999 16.589368 17.062195 0 0 0
1202 10 3 0.027678 19.948969 15.015798 16.419503 0 0 0
1203 10 2 -0.044235 19.418777 15.829290 19.680929 0 0 0
1204 10 2 -0.058306 19.311258 17.207117 19.829698 0 0 0
1205 10 2 -0.061493 18.585335 17.737125 20.889994 0 0 0
1206 10 2 -0.061741 17.966931 16.889307 21.801520 0 0 0
1207 10 2 -0.061493 18.074451 15.511480 21.652751 0 0 0
1208 10 2 -0.058306 18.800374 14.981471 20.592455 0 0 0
1209 10 4 0.062038 19.791744 17.865854 19.121462 0 0 0
1210 10 4 0.061767 18.501795 18.807667 21.005584 0 0 0
1211 10 4 0.061758 17.402905 17.301112 22.625347 0 0 0
1212 10 4 0.061767 17.593965 14.852743 22.360987 0 0 0
1213 10 4 0.062038 18.883914 13.910930 20.476864 0 0 0
1214 10 3 0.034915 20.310105 14.175639 18.654418 0 0 0
1215 10 3 0.027687 22.111718 15.546981 19.457004 0 0 0
1216 10 3 0.027687 21.498361 16.958317 18.555523 0 0 0
1217 10 2 -0.044235 22.585218 13.980631 17.313240 0 0 0
1218 10 2 -0.058306 22.273112 13.289455 16.148351 0 0 0
1219 10 2 -0.061493 22.374493 11.903578 16.114179 0 0 0
1220 10 2 -0.061741 22.787980 11.208877 17.244894 0 0 0
1221 10 2 -0.061493 23.100086 11.900053 18.409783 0 0 0
1222 10 2 -0.058306 22.998706 13.285929 18.443956 0 0 0
1223 10 4 0.062038 21.951841 13.829223 15.269810 0 0 0
1224 10 4 0.061767 22.131993 11.366550 15.209085 0 0 0
1225 10 4 0.061758 22.866751 10.132081 17.218343 0 0 0
1226 10 4 0.061767 23.421357 11.360285 19.288325 0 0 0
1227 10 4 0.062038 23.241205 13.822958 19.349050 0 0 0
1228 10 3 0.034915 21.985797 15.842862 16.444022 0 0 0
1229 10 3 0.027687 24.493362 15.553791 16.646337 0 0 0
1230 10 3 0.027687 24.301023 15.893505 18.386551 0 0 0
1231 10 2 -0.044235 25.342948 18.057244 17.435593 0 0 0
1232 10 2 -0.058306 26.422376 17.652992 16.658730 0 0 0
1233 10 2 -0.061493 27.702970 18.100734 16.961562 0 0 0
1234 10 2 -0.061741 27.904135 18.952727 18.041256 0 0 0
1235 10 2 -0.061493 26.824707 19.356980 18.818118 0 0 0
1236 10 2 -0.058306 25.544113 18.909238 18.515287 0 0 0
1237 10 4 0.062038 26.266074 16.991011 15.819831 0 0 0
1238 10 4 0.061767 28.541662 17.786638 16.357956 0 0 0
1239 10 4 0.061758 28.899129 19.300613 18.276549 0 0 0
1240 10 4 0.061767 26.981009 20.018960 19.657017 0 0 0
1241 10 4 0.062038 24.705421 19.223333 19.118892 0 0 0
1242 10 3 0.034915 23.224974 18.071054 17.746633 0 0 0
1243 10 3 0.027687 22.746857 17.405982 15.347469 0 0 0
1244 10 3 0.027687 24.488933 17.629034 15.037373 0 0 0
1245 10 2 -0.044235 22.194082 19.849999 16.215655 0 0 0
1246 10 2 -0.058306 20.923329 19.576730 15.723099 0 0 0
1247 10 2 -0.061493 19.800194 19.957630 16.448069 0 0 0
1248 10 2 -0.061741 19.947811 20.611800 17.665596 0 0 0
1249 10 2 -0.061493 21.218563 20.885070 18.158152 0 0 0
1250 10 2 -0.058306 22.341699 20.504169 17.433181 0 0 0
1251 10 4 0.062038 20.808634 19.068454 14.777107 0 0 0
1252 10 4 0.061767 18.812846 19.745305 16.065364 0 0 0
1253 10 4 0.061758 19.075159 20.907751 18.228882 0 0 0
1254 10 4 0.061767 21.333259 21.393346 19.104144 0 0 0
1255 10 4 0.062038 23.329046 20.716494 17.815887 0 0 0
1256 10 3 0.034915 24.288635 19.975872 15.791684 0 0 0
1257 10 3 0.027687 22.408194 19.175138 13.559006 0 0 0
1258 10 3 0.027687 24.121729 19.650082 13.421283 0 0 0
1259 10 2 -0.044235 22.834507 21.578753 12.278584 0 0 0
1260 10 2 -0.058306 24.066646 21.713031 11.649376 0 0 0
1261 10 2 -0.061493 24.125551 21.993929 10.289329 0 0 0
1262 10 2 -0.061741 22.952317 22.140548 9.558491 0 0 0
1263 10 2 -0.061493 21.720178 22.006269 10.187699 0 0 0
1264 10 2 -0.058306 21.661273 21.725372 11.547746 0 0 0
1265 10 4 0.062038 24.978224 21.599112 12.217222 0 0 0
1266 10 4 0.061767 25.082896 22.098260 9.800448 0 0 0
1267 10 4 0.061758 22.998085 22.358799 8.501764 0 0 0
1268 10 4 0.061767 20.808600 22.120189 9.619854 0 0 0
1269 10 4 0.062038 20.703928 21.621041 12.036627 0 0 0
1270 10 3 0.034915 21.746725 21.387452 14.112401 0 0 0
1271 10 3 0.027687 24.692561 22.053375 14.276984 0 0 0
1272 10 3 0.027687 23.463119 22.185678 15.562173 0 0 0
1273 10 2 -0.044244 21.952014 24.069049 14.414449 0 0 0
1274 10 2 -0.058306 21.095318 24.491330 13.404572 0 0 0
1275 10 2 -0.061493 19.770737 24.793721 13.698080 0 0 0
1276 10 2 -0.061741 19.302853 24.673832 15.001464 0 0 0
1277 10 2 -0.061493 20.159549 24.251551 16.011341 0 0 0
1278 10 2 -0.058306 21.484129 23.949160 15.717833 0 0 0
1279 10 4 0.062038 21.458854 24.584482 12.391871 0 0 0
1280 10 4 0.061767 19.105103 25.121824 12.913427 0 0 0
1281 10 4 0.061758 18.273683 24.908783 15.229513 0 0 0
1282 10 4 0.061767 19.796013 24.158399 17.024042 0 0 0
1283 10 4 0.062038 22.149763 23.621057 16.502486 0 0 0
1284 10 3 0.034906 23.562794 23.837376 13.023599 0 0 0
1285 10 3 0.027419 25.319059 24.421655 14.721821 0 0 0
1286 10 3 0.027419 23.998675 24.769688 15.869079 0 0 0
1287 10 2 -0.047337 24.967591 27.090463 15.177483 0 0 0
1288 10 2 -0.058572 26.353936 27.001375 15.224498 0 0 0
1289 10 2 -0.061501 27.076496 27.843523 16.061633 0 0 0
1290 10 2 -0.061742 26.412711 28.774759 16.851752 0 0 0
1291 10 2 -0.061501 25.026366 28.863848 16.804737 0 0 0
1292 10 2 -0.058572 24.303806 28.021700 15.967603 0 0 0
1293 10 4 0.062029 26.869682 26.277825 14.610593 0 0 0
1294 10 4 0.061766 28.153656 27.774303 16.098162 0 0 0
1295 10 4 0.061758 26.974125 29.429090 17.502187 0 0 0
1296 10 4 0.061766 24.510619 29.587398 17.418643 0 0 0
1297 10 4 0.062029 23.226645 28.090919 15.931073 0 0 0
1298 10 3 0.031335 23.132413 26.467331 14.268319 0 0 0
1299 10 3 0.023554 16.833600 13.120109 17.257120 0 0 0
1300 10 3 0.031335 24.568132 26.288629 13.254801 0 0 0

Bonds

1 1 1 2
2 1 2 3
3 1 3 4
4 1 4 5
5 1 5 6
6 1 6 7
7 1 7 8
8 1 8 9
9 1 9 10
10 1 10 11
11 1 11 12
12 1 12 13
13 1 13 14
14 1 14 15
15 1 15 16
16 1 1 17
17 1 1 18
18 1 19 20
19 1 20 21
20 1 21 22
21 1 22 23
22 1 23 24
23 1 24 19
24 1 2 19
25 1 20 25
26 1 21 26
27 1 22 27
28 1 23 28
29 1 24 29
30 1 2 30
31 1 3 31
32 1 3 32
33 1 33 34
34 1 34 35
35 1 35 36
36 1 36 37
37 1 37 38
38 1 38 33
39 1 4 33
40 1 34 39
41 1 35 40
42 1 36 41
43 1 37 42
44 1 38 43
45 1 4 44
46 1 5 45
47 1 5 46
48 1 47 48
49 1 48 49
50 1 49 50
51 1 50 51
52 1 51 52
53 1 52 47
54 1 6 47
55 1 48 53
56 1 49 54
57 1 50 55
58 1 51 56
59 1 52 57
60 1 6 58
61 1 7 59
62 1 7 60
63 1 61 62
64 1 62 63
65 1 63 64
66 1 64 65
67 1 65 66
68 1 66 61
69 1 8 61
70 1 62 67
71 1 63 68
72 1 64 69
73 1 65 70
74 1 66 71
75 1 8 72
76 1 9 73
77 1 9 74
78 1 75 76
79 1 76 77
80 1 77 78
81 1 78 79
82 1 79 80
83 1 80 75
84 1 10 75
85 1 76 81
86 1 77 82
87 1 78 83
88 1 79 84
89 1 80 85
90 1 10 86
91 1 11 87
92 1 11 88
93 1 89 90
94 1 90 91
95 1 91 92
96 1 92 93
97 1 93 94
98 1 94 89
99 1 12 89
100 1 90 95
101 1 91 96
102 1 92 97
103 1 93 98
104 1 94 99
105 1 12 100
106 1 13 101
107 1 13 102
108 1 103 104
109 1 104 105
110 1 105 106
111 1 106 107
112 1 107 108
113 1 108 103
114 1 14 103
115 1 104 109
116 1 105 110
117 1 106 111
118 1 107 112
119 1 108 113
120 1 14 114
121 1 15 115
122 1 15 116
123 1 117 118
124 1 118 119
125 1 119 120
126 1 120 121
127 1 121 122
128 1 122 117
129 1 16 117
130 1 118 123
131 1 119 124
132 1 120 125
133 1 121 126
134 1 122 127
135 1 16 128
136 1 1 129
137 1 16 130
138 1 131 132
139 1 132 133
140 1 133 134
141 1 134 135
142 1 135 136
143 1 136 137
144 1 137 138
145 1 138 139
146 1 139 140
147 1 140 141
148 1 141 142
149 1 142 143
150 1 143 144
151 1 144 145
152 1 145 146
153 1 131 147
154 1 131 148
155 1 149 150
156 1 150 151
157 1 151 152
158 1 152 153
159 1 153 154
160 1 154 149
161 1 132 149
162 1 150 155
163 1 151 156
164 1 152 157
165 1 153 158
166 1 154 159
167 1 132 160
168 1 133 161
169 1 133 162
170 1 163 164
171 1 164 165
172 1 165 166
173 1 166 167
174 1 167 168
175 1 168 163
176 1 134 163
177 1 164 169
178 1 165 170
179 1 166 171
180 1 167 172
181 1 168 173
182 1 134 174
183 1 135 175
184 1 135 176
185 1 177 178
186 1 178 179
187 1 179 180
188 1 180 181
189 1 181 182
190 1 182 177
191 1 136 177
192 1 178 183
193 1 179 184
194 1 180 185
195 1 181 186
196 1 182 187
197 1 136 188
198 1 137 189
199 1 137 190
200 1 191 192
201 1 192 193
202 1 193 194
203 1 194 195
204 1 195 196
205 1 196 191
206 1 138 191
207 1 192 197
208 1 193 198
209 1 194 199
210 1 195 200
211 1 196 201
212 1 138 202
213 1 139 203
214 1 139 204
215 1 205 206
216 1 206 207
217 1 207 208
218 1 208 209
219 1 209 210
220 1 210 205
221 1 140 205
222 1 206 211
223 1 207 212
224 1 208 213
225 1 209 214
226 1 210 215
227 1 140 216
228 1 141 217
229 1 141 218
230 1 219 220
231 1 220 221
232 1 221 222
233 1 222 223
234 1 223 224
235 1 224 219
236 1 142 219
237 1 220 225
238 1 221 226
239 1 222 227
240 1 223 228
241 1 224 229
242 1 142 230
243 1 143 231
244 1 143 232
245 1 233 234
246 1 234 235
247 1 235 236
248 1 236 237
249 1 237 238
250 1 238 233
251 1 144 233
252 1 234 239
253 1 235 240
254 1 236 241
255 1 237 242
256 1 238 243
257 1 144 244
258 1 145 245
259 1 145 246
260 1 247 248
261 1 248 249
262 1 249 250
263 1 250 251
264 1 251 252
265 1 252 247
266 1 146 247
267 1 248 253
268 1 249 254
269 1 250 255
270 1 251 256
271 1 252 257
272 1 146 258
273 1 131 259
274 1 146 260
275 1 261 262
276 1 262 263
277 1 263 264
278 1 264 265
279 1 265 266
280 1 266 267
281 1 267 268
282 1 268 269
283 1 269 270
284 1 270 271
285 1 271 272
286 1 272 273
287 1 273 274
288 1 274 275
289 1 275 276
290 1 261 277
291 1 261 278
292 1 279 280
293 1 280 281
294 1 281 282
295 1 282 283
296 1 283 284
297 1 284 279
298 1 262 279
299 1 280 285
300 1 281 286
301 1 282 287
302 1 283 288
303 1 284 289
304 1 262 290
305 1 263 291
306 1 263 292
307 1 293 294
308 1 294 295
309 1 295 296
310 1 296 297
311 1 297 298
312 1 298 293
313 1 264 293
314 1 294 299
315 1 295 300
316 1 296 301
317 1 297 302
318 1 298 303
319 1 264 304
320 1 265 305
321 1 265 306
322 1 307 308
323 1 308 309
324 1 309 310
325 1 310 311
326 1 311 312
327 1 312 307
328 1 266 307
329 1 308 313
330 1 309 314
331 1 310 315
332 1 311 316
333 1 312 317
334 1 266 318
335 1 267 319
336 1 267 320
337 1 321 322
338 1 322 323
339 1 323 324
340 1 324 325
341 1 325 326
342 1 326 321
343 1 268 321
344 1 322 327
345 1 323 328
346 1 324 329
347 1 325 330
348 1 326 331
349 1 268 332
350 1 269 333
351 1 269 334
352 1 335 336
353 1 336 337
354 1 337 338
355 1 338 339
356 1 339 340
357 1 340 335
358 1 270 335
359 1 336 341
360 1 337 342
361 1 338 343
362 1 339 344
363 1 340 345
364 1 270 346
365 1 271 347
366 1 271 348
367 1 349 350
368 1 350 351
369 1 351 352
370 1 352 353
371 1 353 354
372 1 354 349
373 1 272 349
374 1 350 355
375 1 351 356
376 1 352 357
377 1 353 358
378 1 354 359
379 1 272 360
380 1 273 361
381 1 273 362
382 1 363 364
383 1 364 365
384 1 365 366
385 1 366 367
386 1 367 368
387 1 368 363
388 1 274 363
389 1 364 369
390 1 365 370
391 1 366 371
392 1 367 372
393 1 368 373
394 1 274 374
395 1 275 375
396 1 275 376
397 1 377 378
398 1 378 379
399 1 379 380
400 1 380 381
401 1 381 382
402 1 382 377
403 1 276 377
404 1 378 383
405 1 379 384
406 1 380 385
407 1 381 386
408 1 382 387
409 1 276 388
410 1 261 389
411 1 276 390
412 1 391 392
413 1 392 393
414 1 393 394
415 1 394 395
416 1 395 396
417 1 396 397
418 1 397 398
419 1 398 399
420 1 399 400
421 1 400 401
422 1 401 402
423 1 402 403
424 1 403 404
425 1 404 405
426 1 405 406
427 1 391 407
428 1 391 408
429 1 409 410
430 1 410 411
431 1 411 412
432 1 412 413
433 1 413 414
434 1 414 409
435 1 392 409
436 1 410 415
437 1 411 416
438 1 412 417
439 1 413 418
440 1 414 419
441 1 392 420
442 1 393 421
443 1 393 422
444 1 423 424
445 1 424 425
446 1 425 426
447 1 426 427
448 1 427 428
449 1 428 423
450 1 394 423
451 1 424 429
452 1 425 430
453 1 426 431
454 1 427 432
455 1 428 433
456 1 394 434
457 1 395 435
458 1 395 436
459 1 437 438
460 1 438 439
461 1 439 440
462 1 440 441
463 1 441 442
464 1 442 437
465 1 396 437
466 1 438 443
467 1 439 444
468 1 440 445
469 1 441 446
470 1 442 447
471 1 396 448
472 1 397 449
473 1 397 450
474 1 451 452
475 1 452 453
476 1 453 454
477 1 454 455
478 1 455 456
479 1 456 451
480 1 398 451
481 1 452 457
482 1 453 458
483 1 454 459
484 1 455 460
485 1 456 461
486 1 398 462
487 1 399 463
488 1 399 464
489 1 465 466
490 1 466 467
491 1 467 468
492 1 468 469
493 1 469 470
494 1 470 465
495 1 400 465
496 1 466 471
497 1 467 472
498 1 468 473
499 1 469 474
500 1 470 475
501 1 400 476
502 1 401 477
503 1 401 478
504 1 479 480
505 1 480 481
506 1 481 482
507 1 482 483
508 1 483 484
509 1 484 479
510 1 402 479
511 1 480 485
512 1 481 486
513 1 482 487
514 1 483 488
515 1 484 489
516 1 402 490
517 1 403 491
518 1 403 492
519 1 493 494
520 1 494 495
521 1 495 496
522 1 496 497
523 1 497 498
524 1 498 493
525 1 404 493
526 1 494 499
527 1 495 500
528 1 496 501
529 1 497 502
530 1 498 503
531 1 404 504
532 1 405 505
533 1 405 506
534 1 507 508
535 1 508 509
536 1 509 510
537 1 510 511
538 1 511 512
539 1 512 507
540 1 406 507
541 1 508 513
542 1 509 514
543 1 510 515
544 1 511 516
545 1 512 517
546 1 406 518
547 1 391 519
548 1 406 520
549 1 521 522
550 1 522 523
551 1 523 524
552 1 524 525
553 1 525 526
554 1 526 527
555 1 527 528
556 1 528 529
557 1 529 530
558 1 530 531
559 1 531 532
560 1 532 533
561 1 533 534
562 1 534 535
563 1 535 536
564 1 521 537
565 1 521 538
566 1 539 540
567 1 540 541
568 1 541 542
569 1 542 543
570 1 543 544
571 1 544 539
572 1 522 539
573 1 540 545
574 1 541 546
575 1 542 547
576 1 543 548
577 1 544 549
578 1 522 550
579 1 523 551
580 1 523 552
581 1 553 554
582 1 554 555
583 1 555 556
584 1 556 557
585 1 557 558
586 1 558 553
587 1 524 553
588 1 554 559
589 1 555 560
590 1 556 561
591 1 557 562
592 1 558 563
593 1 524 564
594 1 525 565
595 1 525 566
596 1 567 568
597 1 568 569
598 1 569 570
599 1 570 571
600 1 571 572
601 1 572 567
602 1 526 567
603 1 568 573
604 1 569 574
605 1 570 575
606 1 571 576
607 1 572 577
608 1 526 578
609 1 527 579
610 1 527 580
611 1 581 582
612 1 582 583
613 1 583 584
614 1 584 585
615 1 585 586
616 1 586 581
617 1 528 581
618 1 582 587
619 1 583 588
620 1 584 589
621 1 585 590
622 1 586 591
623 1 528 592
624 1 529 593
625 1 529 594
626 1 595 596
627 1 596 597
628 1 597 598
629 1 598 599
630 1 599 600
631 1 600 595
632 1 530 595
633 1 596 601
634 1 597 602
635 1 598 603
636 1 599 604
637 1 600 605
638 1 530 606
639 1 531 607
640 1 531 608
641 1 609 610
642 1 610 611
643 1 611 612
644 1 612 613
645 1 613 614
646 1 614 609
647 1 532 609
648 1 610 615
649 1 611 616
650 1 612 617
651 1 613 618
652 1 614 619
653 1 532 620
654 1 533 621
655 1 533 622
656 1 623 624
657 1 624 625
658 1 625 626
659 1 626 627
660 1 627 628
661 1 628 623
662 1 534 623
663 1 624 629
664 1 625 630
665 1 626 631
666 1 627 632
667 1 628 633
668 1 534 634
669 1 535 635
670 1 535 636
671 1 637 638
672 1 638 639
673 1 639 640
674 1 640 641
675 1 641 642
676 1 642 637
677 1 536 637
678 1 638 643
679 1 639 644
680 1 640 645
681 1 641 646
682 1 642 647
683 1 536 648
684 1 521 649
685 1 536 650
686 1 651 652
687 1 652 653
688 1 653 654
689 1 654 655
690 1 655 656
691 1 656 657
692 1 657 658
693 1 658 659
694 1 659 660
695 1 660 661
696 1 661 662
697 1 662 663
698 1 663 664
699 1 664 665
700 1 665 666
701 1 651 667
702 1 651 668
703 1 669 670
704 1 670 671
705 1 671 672
706 1 672 673
707 1 673 674
708 1 674 669
709 1 652 669
710 1 670 675
711 1 671 676
712 1 672 677
713 1 673 678
714 1 674 679
715 1 652 680
716 1 653 681
717 1 653 682
718 1 683 684
719 1 684 685
720 1 685 686
721 1 686 687
722 1 687 688
723 1 688 683
724 1 654 683
725 1 684 689
726 1 685 690
727 1 686 691
728 1 687 692
729 1 688 693
730 1 654 694
731 1 655 695
732 1 655 696
733 1 697 698
734 1 698 699
735 1 699 700
736 1 700 701
737 1 701 702
738 1 702 697
739 1 656 697
740 1 698 703
741 1 699 704
742 1 700 705
743 1 701 706
744 1 702 707
745 1 656 708
746 1 657 709
747 1 657 710
748 1 711 712
749 1 712 713
750 1 713 714
751 1 714 715
752 1 715 716
753 1 716 711
754 1 658 711
755 1 712 717
756 1 713 718
757 1 714 719
758 1 715 720
759 1 716 721
760 1 658 722
761 1 659 723
762 1 659 724
763 1 725 726
764 1 726 727
765 1 727 728
766 1 728 729
767 1 729 730
768 1 730 725
769 1 660 725
770 1 726 731
771 1 727 732
772 1 728 733
773 1 729 734
774 1 730 735
775 1 660 736
776 1 661 737
777 1 661 738
778 1 739 740
779 1 740 741
780 1 741 742
781 1 742 743
782 1 743 744
783 1 744 739
784 1 662 739
785 1 740 745
786 1 741 746
787 1 742 747
788 1 743 748
789 1 744 749
790 1 662 750
791 1 663 751
792 1 663 752
793 1 753 754
794 1 754 755
795 1 755 756
796 1 756 757
797 1 757 758
798 1 758 753
799 1 664 753
800 1 754 759
801 1 755 760
802 1 756 761
803 1 757 762
804 1 758 763
805 1 664 764
806 1 665 765
807 1 665 766
808 1 767 768
809 1 768 769
810 1 769 770
811 1 770 771
812 1 771 772
813 1 772 767
814 1 666 767
815 1 768 773
816 1 769 774
817 1 770 775
818 1 771 776
819 1 772 777
820 1 666 778
821 1 651 779
822 1 666 780
823 1 781 782
824 1 782 783
825 1 783 784
826 1 784 785
827 1 785 786
828 1 786 787
829 1 787 788
830 1 788 789
831 1 789 790
832 1 790 791
833 1 791 792
834 1 792 793
835 1 793 794
836 1 794 795
837 1 795 796
838 1 781 797
839 1 781 798
840 1 799 800
841 1 800 801
842 1 801 802
843 1 802 803
844 1 803 804
845 1 804 799
846 1 782 799
847 1 800 805
848 1 801 806
849 1 802 807
850 1 803 808
851 1 804 809
852 1 782 810
853 1 783 811
854 1 783 812
855 1 813 814
856 1 814 815
857 1 815 816
858 1 816 817
859 1 817 818
860 1 818 813
861 1 784 813
862 1 814 819
863 1 815 820
864 1 816 821
865 1 817 822
866 1 818 823
867 1 784 824
868 1 785 825
869 1 785 826
870 1 827 828
871 1 828 829
872 1 829 830
873 1 830 831
874 1 831 832
875 1 832 827
876 1 786 827
877 1 828 833
878 1 829 834
879 1 830 835
880 1 831 836
881 1 832 837
882 1 786 838
883 1 787 839
884 1 787 840
885 1 841 842
886 1 842 843
887 1 843 844
888 1 844 845
889 1 845 846
890 1 846 841
891 1 788 841
892 1 842 847
893 1 843 848
894 1 844 849
895 1 845 850
896 1 846 851
897 1 788 852
898 1 789 853
899 1 789 854
900 1 855 856
901 1 856 857
902 1 857 858
903 1 858 859
904 1 859 860
905 1 860 855
906 1 790 855
907 1 856 861
908 1 857 862
909 1 858 863
910 1 859 864
911 1 860 865
912 1 790 866
913 1 791 867
914 1 791 868
915 1 869 870
916 1 870 871
917 1 871 872
918 1 872 873
919 1 873 874
920 1 874 869
921 1 792 869
922 1 870 875
923 1 871 876
924 1 872 877
925 1 873 878
926 1 874 879
927 1 792 880
928 1 793 881
929 1 793 882
930 1 883 884
931 1 884 885
932 1 885 886
933 1 886 887
934 1 887 888
935 1 888 883
936 1 794 883
937 1 884 889
938 1 885 890
939 1 886 891
940 1 887 892
941 1 888 893
942 1 794 894
943 1 795 895
944 1 795 896
945 1 897 898
946 1 898 899
947 1 899 900
948 1 900 901
949 1 901 902
950 1 902 897
951 1 796 897
952 1 898 903
953 1 899 904
954 1 900 905
955 1 901 906
956 1 902 907
957 1 796 908
958 1 781 909
959 1 796 910
960 1 911 912
961 1 912 913
962 1 913 914
963 1 914 915
964 1 915 916
965 1 916 917
966 1 917 918
967 1 918 919
968 1 919 920
969 1 920 921
970 1 921 922
971 1 922 923
972 1 923 924
973 1 924 925
974 1 925 926
975 1 911 927
976 1 911 928
977 1 929 930
978 1 930 931
979 1 931 932
980 1 932 933
981 1 933 934
982 1 934 929
983 1 912 929
984 1 930 935
985 1 931 936
986 1 932 937
987 1 933 938
988 1 934 939
989 1 912 940
990 1 913 941
991 1 913 942
992 1 943 944
993 1 944 945
994 1 945 946
995 1 946 947
996 1 947 948
997 1 948 943
998 1 914 943
999 1 944 949
1000 1 945 950
1001 1 946 951
1002 1 947 952
1003 1 948 953
1004 1 914 954
1005 1 915 955
1006 1 915 956
1007 1 957 958
1008 1 958 959
1009 1 959 960
1010 1 960 961
1011 1 961 962
1012 1 962 957
1013 1 916 957
1014 1 958 963
1015 1 959 964
1016 1 960 965
1017 1 961 966
1018 1 962 967
1019 1 916 968
1020 1 917 969
1021 1 917 970
1022 1 971 972
1023 1 972 973
1024 1 973 974
1025 1 974 975
1026 1 975 976
1027 1 976 971
1028 1 918 971
1029 1 972 977
1030 1 973 978
1031 1 974 979
1032 1 975 980
1033 1 976 981
1034 1 918 982
1035 1 919 983
1036 1 919 984
1037 1 985 986
1038 1 986 987
1039 1 987 988
1040 1 988 989
1041 1 989 990
1042 1 990 985
1043 1 920 985
1044 1 986 991
1045 1 987 992
1046 1 988 993
1047 1 989 994
1048 1 990 995
1049 1 920 996
1050 1 921 997
1051 1 921 998
1052 1 999 1000
1053 1 1000 1001
1054 1 1001 1002
1055 1 1002 1003
1056 1 1003 1004
1057 1 1004 999
1058 1 922 999
1059 1 1000 1005
1060 1 1001 1006
1061 1 1002 1007
1062 1 1003 1008
1063 1 1004 1009
1064 1 922 1010
1065 1 923 1011
1066 1 923 1012
1067 1 1013 1014
1068 1 1014 1015
1069 1 1015 1016
1070 1 1016 1017
1071 1 1017 1018
1072 1 1018 1013
1073 1 924 1013
1074 1 1014 1019
1075 1 1015 1020
1076 1 1016 1021
1077 1 1017 1022
1078 1 1018 1023
1079 1 924 1024
1080 1 925 1025
1081 1 925 1026
1082 1 1027 1028
1083 1 1028 1029
1084 1 1029 1030
1085 1 1030 1031
1086 1 1031 1032
1087 1 1032 1027
1088 1 926 1027
1089 1 1028 1033
1090 1 1029 1034
1091 1 1030 1035
1092 1 1031 1036
1093 1 1032 1037
1094 1 926 1038
1095 1 911 1039
1096 1 926 1040
1097 1 1041 1042
1098 1 1042 1043
1099 1 1043 1044
1100 1 1044 1045
1101 1 1045 1046
1102 1 1046 1047
1103 1 1047 1048
1104 1 1048 1049
1105 1 1049 1050
1106 1 1050 1051
1107 1 1051 1052
1108 1 1052 1053
1109 1 1053 1054
1110 1 1054 1055
1111 1 1055 1056
1112 1 1041 1057
1113 1 1041 1058
1114 1 1059 1060
1115 1 1060 1061
1116 1 1061 1062
1117 1 1062 1063
1118 1 1063 1064
1119 1 1064 1059
1120 1 1042 1059
1121 1 1060 1065
1122 1 1061 1066
1123 1 1062 1067
1124 1 1063 1068
1125 1 1064 1069
1126 1 1042 1070
1127 1 1043 1071
1128 1 1043 1072
1129 1 1073 1074
1130 1 1074 1075
1131 1 1075 1076
1132 1 1076 1077
1133 1 1077 1078
1134 1 1078 1073
1135 1 1044 1073
1136 1 1074 1079
1137 1 1075 1080
1138 1 1076 1081
1139 1 1077 1082
1140 1 1078 1083
1141 1 1044 1084
1142 1 1045 1085
1143 1 1045 1086
1144 1 1087 1088
1145 1 1088 1089
1146 1 1089 1090
1147 1 1090 1091
1148 1 1091 1092
1149 1 1092 1087
1150 1 1046 1087
1151 1 1088 1093
1152 1 1089 1094
1153 1 1090 1095
1154 1 1091 1096
1155 1 1092 1097
1156 1 1046 1098
1157 1 1047 1099
1158 1 1047 1100
1159 1 1101 1102
1160 1 1102 1103
1161 1 1103 1104
1162 1 1104 1105
1163 1 1105 1106
1164 1 1106 1101
1165 1 1048 1101
1166 1 1102 1107
1167 1 1103 1108
1168 1 1104 1109
1169 1 1105 1110
1170 1 1106 1111
1171 1 1048 1112
1172 1 1049 1113
1173 1 1049 1114
1174 1 1115 1116
1175 1 1116 1117
1176 1 1117 1118
1177 1 1118 1119
1178 1 1119 1120
1179 1 1120 1115
1180 1 1050 1115
1181 1 1116 1121
1182 1 1117 1122
1183 1 1118 1123
1184 1 1119 1124
1185 1 1120 1125
1186 1 1050 1126
1187 1 1051 1127
1188 1 1051 1128
1189 1 1129 1130
1190 1 1130 1131
1191 1 1131 1132
1192 1 1132 1133
1193 1 1133 1134
1194 1 1134 1129
1195 1 1052 1129
1196 1 1130 1135
1197 1 1131 1136
1198 1 1132 1137
1199 1 1133 1138
1200 1 1134 1139
1201 1 1052 1140
1202 1 1053 1141
1203 1 1053 1142
1204 1 1143 1144
1205 1 1144 1145
1206 1 1145 1146
1207 1 1146 1147
1208 1 1147 1148
1209 1 1148 1143
1210 1 1054 1143
1211 1 1144 1149
1212 1 1145 1150
1213 1 1146 1151
1214 1 1147 1152
1215 1 1148 1153
1216 1 1054 1154
1217 1 1055 1155
1218 1 1055 1156
1219 1 1157 1158
1220 1 1158 1159
1221 1 1159 1160
1222 1 1160 1161
1223 1 1161 1162
1224 1 1162 1157
1225 1 1056 1157
1226 1 1158 1163
1227 1 1159 1164
1228 1 1160 1165
1229 1 1161 1166
1230 1 1162 1167
1231 1 1056 1168
1232 1 1041 1169
1233 1 1056 1170
1234 1 1171 1172
1235 1 1172 1173
1236 1 1173 1174
1237 1 1174 1175
1238 1 1175 1176
1239 1 1176 1177
1240 1 1177 1178
1241 1 1178 1179
1242 1 1179 1180
1243 1 1180 1181
1244 1 1181 1182
1245 1 1182 1183
1246 1 1183 1184
1247 1 1184 1185
1248 1 1185 1186
1249 1 1171 1187
1250 1 1171 1188
1251 1 1189 1190
1252 1 1190 1191
1253 1 1191 1192
1254 1 1192 1193
1255 1 1193 1194
1256 1 1194 1189
1257 1 1172 1189
1258 1 1190 1195
1259 1 1191 1196
1260 1 1192 1197
1261 1 1193 1198
1262 1 1194 1199
1263 1 1172 1200
1264 1 1173 1201
1265 1 1173 1202
1266 1 1203 1204
1267 1 1204 1205
1268 1 1205 1206
1269 1 1206 1207
1270 1 1207 1208
1271 1 1208 1203
1272 1 1174 1203
1273 1 1204 1209
1274 1 1205 1210
1275 1 1206 1211
1276 1 1207 1212
1277 1 1208 1213
1278 1 1174 1214
1279 1 1175 1215
1280 1 1175 1216
1281 1 1217 1218
1282 1 1218 1219
1283 1 1219 1220
1284 1 1220 1221
1285 1 1221 1222
1286 1 1222 1217
1287 1 1176 1217
1288 1 1218 1223
1289 1 1219 1224
1290 1 1220 1225
1291 1 1221 1226
1292 1 1222 1227
1293 1 1176 1228
1294 1 1177 1229
1295 1 1177 1230
1296 1 1231 1232
1297 1 1232 1233
1298 1 1233 1234
1299 1 1234 1235
1300 1 1235 1236
1301 1 1236 1231
1302 1 1178 1231
1303 1 1232 1237
1304 1 1233 1238
1305 1 1234 1239
1306 1 1235 1240
1307 1 1236 1241
1308 1 1178 1242
1309 1 1179 1243
1310 1 1179 1244
1311 1 1245 1246
1312 1 1246 1247
1313 1 1247 1248
1314 1 1248 1249
1315 1 1249 1250
1316 1 1250 1245
1317 1 1180 1245
1318 1 1246 1251
1319 1 1247 1252
1320 1 1248 1253
1321 1 1249 1254
1322 1 1250 1255
1323 1 1180 1256
1324 1 1181 1257
1325 1 1181 1258
1326 1 1259 1260
1327 1 1260 1261
1328 1 1261 1262
1329 1 1262 1263
1330 1 1263 1264
1331 1 1264 1259
1332 1 1182 1259
1333 1 1260 1265
1334 1 1261 1266
1335 1 1262 1267
1336 1 1263 1268
1337 1 1264 1269
1338 1 1182 1270
1339 1 1183 1271
1340 1 1183 1272
1341 1 1273 1274
1342 1 1274 1275
1343 1 1275 1276
1344 1 1276 1277
1345 1 1277 1278
1346 1 1278 1273
1347 1 1184 1273
1348 1 1274 1279
1349 1 1275 1280
1350 1 1276 1281
1351 1 1277 1282
1352 1 1278 1283
1353 1 1184 1284
1354 1 1185 1285
1355 1 1185 1286
1356 1 1287 1288
1357 1 1288 1289
1358 1 1289 1290
1359 1 1290 1291
1360 1 1291 1292
1361 1 1292 1287
1362 1 1186 1287
1363 1 1288 1293
1364 1 1289 1294
1365 1 1290 1295
1366 1 1291 1296
1367 1 1292 1297
1368 1 1186 1298
1369 1 1171 1299
1370 1 1186 1300
