ITEM: TIMESTEP
0
ITEM: NUMBER OF ATOMS
1300
ITEM: BOX BOUNDS pp pp pp
0.0 33.0
0.0 33.0
0.0 33.0
ITEM: ATOMS id mol type q xu yu zu
1 1 1 -0.058379 20.07250 0.98699 30.42092
2 1 1 -0.018134 18.63940 1.21159 30.90742
3 1 1 -0.039597 17.66912 1.64447 29.80648
4 1 1 -0.014764 17.86132 3.08896 29.34021
5 1 1 -0.039327 16.81963 3.55824 28.32258
6 1 1 -0.014755 16.98310 5.01742 27.89250
7 1 1 -0.039327 15.84789 5.53631 27.00767
8 1 1 -0.014755 16.03936 6.97754 26.53114
9 1 1 -0.039327 14.84009 7.54574 25.76970
10 1 1 -0.014755 15.09560 8.91638 25.13963
11 1 1 -0.039327 13.87143 9.52242 24.45041
12 1 1 -0.014755 14.09953 10.93339 23.90449
13 1 1 -0.039335 12.83324 11.60670 23.37153
14 1 1 -0.015007 12.35077 11.05150 22.02994
15 1 1 -0.042196 10.99697 11.60332 21.57872
16 1 1 -0.027132 10.36353 10.82846 20.42146
17 1 3 0.023554 20.05565 0.21059 29.65605
18 1 3 0.023554 20.43749 1.92006 29.99167
19 1 2 -0.044513 18.13376 -0.08102 31.50206
20 1 2 -0.058315 17.55776 -1.04464 30.68245
21 1 2 -0.061493 17.09231 -2.23452 31.22984
22 1 2 -0.061741 17.20285 -2.46078 32.59683
23 1 2 -0.061493 17.77885 -1.49716 33.41645
24 1 2 -0.058315 18.24431 -0.30728 32.86906
25 1 4 0.062038 17.47187 -0.86884 29.62032
26 1 4 0.061767 16.64477 -2.98323 30.59302
27 1 4 0.061758 16.84121 -3.38529 33.02214
28 1 4 0.061767 17.86474 -1.67296 34.47857
29 1 4 0.062038 18.69184 0.44143 33.50588
30 1 3 0.034630 18.65625 1.98799 31.67228
31 1 3 0.027678 16.65292 1.54087 30.18689
32 1 3 0.027678 17.81086 0.98711 28.94864
33 1 2 -0.044235 17.78149 3.99064 30.54881
34 1 2 -0.058306 16.61070 4.04973 31.29571
35 1 2 -0.061493 16.53721 4.87976 32.40826
36 1 2 -0.061741 17.63451 5.65069 32.77390
37 1 2 -0.061493 18.80530 5.59160 32.02700
38 1 2 -0.058306 18.87879 4.76157 30.91445
39 1 4 0.062038 15.75812 3.45074 31.01161
40 1 4 0.061767 15.62754 4.92567 32.98858
41 1 4 0.061758 17.57742 6.29560 33.63832
42 1 4 0.061767 19.65788 6.19059 32.31109
43 1 4 0.062038 19.78847 4.71566 30.33412
44 1 3 0.034915 18.84711 3.17166 28.88253
45 1 3 0.027687 15.83133 3.44210 28.76741
46 1 3 0.027687 16.90138 2.92974 27.43579
47 1 2 -0.044235 18.27669 5.14175 27.12356
48 1 2 -0.058306 18.48138 4.37890 25.97977
49 1 2 -0.061493 19.67217 4.49335 25.27193
50 1 2 -0.061741 20.65826 5.37065 25.70789
51 1 2 -0.061493 20.45357 6.13350 26.85168
52 1 2 -0.058306 19.26279 6.01905 27.55952
53 1 4 0.062038 17.71521 3.69726 25.64104
54 1 4 0.061767 19.83121 3.90063 24.38323
55 1 4 0.061758 21.58348 5.45958 25.15791
56 1 4 0.061767 21.21975 6.81515 27.19041
57 1 4 0.062038 19.10375 6.61177 28.44822
58 1 3 0.034915 17.02624 5.63497 28.78964
59 1 3 0.027687 14.92025 5.48563 27.57777
60 1 3 0.027687 15.77755 4.89318 26.13044
61 1 2 -0.044235 16.28647 7.84677 27.74088
62 1 2 -0.058306 15.35613 7.88213 28.77301
63 1 2 -0.061493 15.58360 8.68229 29.88662
64 1 2 -0.061741 16.74142 9.44708 29.96808
65 1 2 -0.061493 17.67177 9.41172 28.93595
66 1 2 -0.058306 17.44430 8.61157 27.82235
67 1 4 0.062038 14.45652 7.28791 28.70971
68 1 4 0.061767 14.86074 8.70976 30.68856
69 1 4 0.061758 16.91817 10.06878 30.83333
70 1 4 0.061767 18.57137 10.00595 28.99925
71 1 4 0.062038 18.16716 8.58409 27.02040
72 1 3 0.034915 16.90714 7.00680 25.87220
73 1 3 0.027687 14.00702 7.64015 26.46625
74 1 3 0.027687 14.57883 6.84773 24.97433
75 1 2 -0.044235 16.19168 8.76747 24.11175
76 1 2 -0.058306 15.95332 8.06037 22.93903
77 1 2 -0.061493 16.96230 7.92330 21.99283
78 1 2 -0.061741 18.20964 8.49333 22.21937
79 1 2 -0.061493 18.44799 9.20044 23.39210
80 1 2 -0.058306 17.43902 9.33751 24.33829
81 1 4 0.062038 14.98417 7.61747 22.76301
82 1 4 0.061767 16.77710 7.37390 21.08165
83 1 4 0.061758 18.99359 8.38683 21.48420
84 1 4 0.061767 19.41714 9.64334 23.56811
85 1 4 0.062038 17.62421 9.88691 25.24947
86 1 3 0.034915 15.41744 9.59900 25.92610
87 1 3 0.027687 13.05766 9.56390 25.17441
88 1 3 0.027687 13.59275 8.87545 23.61862
89 1 2 -0.044235 14.65611 11.78730 25.01857
90 1 2 -0.058306 13.81995 12.23640 26.03407
91 1 2 -0.061493 14.33229 13.02245 27.05961
92 1 2 -0.061741 15.68080 13.35939 27.06965
93 1 2 -0.061493 16.51696 12.91029 26.05414
94 1 2 -0.058306 16.00461 12.12425 25.02860
95 1 4 0.062038 12.77219 11.97459 26.02627
96 1 4 0.061767 13.68261 13.37139 27.84863
97 1 4 0.061758 16.07888 13.97014 27.86647
98 1 4 0.061767 17.56472 13.17210 26.06194
99 1 4 0.062038 16.65429 11.77531 24.23958
100 1 3 0.034915 14.82189 10.87188 23.09054
101 1 3 0.027687 13.03848 12.66994 23.24705
102 1 3 0.027687 12.03837 11.46758 24.10429
103 1 2 -0.044244 13.37715 11.39811 20.97803
104 1 2 -0.058306 13.99058 10.38812 20.24610
105 1 2 -0.061493 14.93539 10.70719 19.27779
106 1 2 -0.061741 15.26677 12.03626 19.04141
107 1 2 -0.061493 14.65335 13.04625 19.77334
108 1 2 -0.058306 13.70853 12.72718 20.74165
109 1 4 0.062038 13.73310 9.35547 20.42976
110 1 4 0.061767 15.41201 9.92245 18.70909
111 1 4 0.061758 16.00087 12.28417 18.28905
112 1 4 0.061767 14.91082 14.07890 19.58968
113 1 4 0.062038 13.23192 13.51192 21.31035
114 1 3 0.034906 12.26533 9.96855 22.11949
115 1 3 0.027419 11.13811 12.63642 21.26109
116 1 3 0.027419 10.31395 11.56820 22.42745
117 1 2 -0.047337 10.24164 9.38057 20.83237
118 1 2 -0.058572 11.13200 8.43842 20.33068
119 1 2 -0.061501 11.01979 7.10559 20.70893
120 1 2 -0.061742 10.01722 6.71491 21.58889
121 1 2 -0.061501 9.12685 7.65707 22.09058
122 1 2 -0.058572 9.23906 8.98989 21.71233
123 1 4 0.062029 11.91098 8.74196 19.64697
124 1 4 0.061766 11.71158 6.37356 20.31913
125 1 4 0.061758 9.93003 5.67933 21.88278
126 1 4 0.061766 8.34787 7.35352 22.77429
127 1 4 0.062029 8.54727 9.72193 22.10213
128 1 3 0.031335 11.01950 10.91222 19.55498
129 1 3 0.023554 20.76374 0.67860 31.20525
130 1 3 0.031335 9.37435 11.18697 20.13672
131 2 1 -0.058379 8.16652 -5.85850 17.45455
132 2 1 -0.018134 7.62636 -5.98763 16.02890
133 2 1 -0.039597 7.36216 -4.64741 15.33976
134 2 1 -0.014764 7.10027 -4.76150 13.83666
135 2 1 -0.039327 6.58448 -3.47179 13.19519
136 2 1 -0.014755 7.46185 -2.24795 13.46602
137 2 1 -0.039327 7.15657 -1.05125 12.56290
138 2 1 -0.014755 7.87856 0.23508 12.96907
139 2 1 -0.039327 7.81430 1.34367 11.91655
140 2 1 -0.014755 8.32447 2.69950 12.40885
141 2 1 -0.039327 8.19790 3.82348 11.37854
142 2 1 -0.014755 6.76067 4.29165 11.14171
143 2 1 -0.039335 6.62452 5.35542 10.05049
144 2 1 -0.015007 6.84719 4.82475 8.63285
145 2 1 -0.042196 6.63162 5.86966 7.53622
146 2 1 -0.027132 7.74965 6.90960 7.43910
147 2 3 0.023554 9.10413 -5.30402 17.41546
148 2 3 0.023554 7.43648 -5.30771 18.04764
149 2 2 -0.044513 8.63770 -6.75065 15.20727
150 2 2 -0.058315 9.66154 -6.07032 14.55842
151 2 2 -0.061493 10.59251 -6.77271 13.80209
152 2 2 -0.061741 10.49964 -8.15543 13.69460
153 2 2 -0.061493 9.47581 -8.83577 14.34345
154 2 2 -0.058315 8.54484 -8.13338 15.09978
155 2 4 0.062038 9.73370 -4.99598 14.64194
156 2 4 0.061767 11.38801 -6.24411 13.29794
157 2 4 0.061758 11.22299 -8.70118 13.10694
158 2 4 0.061767 9.40365 -9.91011 14.25993
159 2 4 0.062038 7.74934 -8.66198 15.60392
160 2 3 0.034630 6.68875 -6.54211 16.06798
161 2 3 0.027678 8.23408 -4.01009 15.48697
162 2 3 0.027678 6.48849 -4.19077 15.80482
163 2 2 -0.044235 6.07046 -5.84375 13.61683
164 2 2 -0.058306 6.25056 -6.77921 12.60461
165 2 2 -0.061493 5.30258 -7.77545 12.40225
166 2 2 -0.061741 4.17451 -7.83623 13.21210
167 2 2 -0.061493 3.99441 -6.90077 14.22432
168 2 2 -0.058306 4.94239 -5.90453 14.42668
169 2 4 0.062038 7.12704 -6.73198 11.97537
170 2 4 0.061767 5.44251 -8.50228 11.61578
171 2 4 0.061758 3.43796 -8.61029 13.05487
172 2 4 0.061767 3.11793 -6.94800 14.85356
173 2 4 0.062038 4.80246 -5.17770 15.21315
174 2 3 0.034915 8.03464 -5.03626 13.34722
175 2 3 0.027687 5.58748 -3.27058 13.58712
176 2 3 0.027687 6.53351 -3.62344 12.11699
177 2 2 -0.044235 8.90374 -2.64377 13.25537
178 2 2 -0.058306 9.29185 -3.24792 12.06521
179 2 2 -0.061493 10.61915 -3.61228 11.87130
180 2 2 -0.061741 11.55835 -3.37249 12.86754
181 2 2 -0.061493 11.17024 -2.76834 14.05770
182 2 2 -0.058306 9.84294 -2.40398 14.25161
183 2 4 0.062038 8.56211 -3.43423 11.29115
184 2 4 0.061767 10.92070 -4.08169 10.94657
185 2 4 0.061758 12.58964 -3.65559 12.71688
186 2 4 0.061767 11.89998 -2.58203 14.83176
187 2 4 0.062038 9.54139 -1.93457 15.17634
188 2 3 0.034915 7.31062 -1.94181 14.50116
189 2 3 0.027687 6.08311 -0.86478 12.59449
190 2 3 0.027687 7.45730 -1.30516 11.54644
191 2 2 -0.044235 7.24605 0.75158 14.23921
192 2 2 -0.058306 7.95964 0.72471 15.43175
193 2 2 -0.061493 7.37739 1.20016 16.60095
194 2 2 -0.061741 6.08154 1.70248 16.57760
195 2 2 -0.061493 5.36794 1.72935 15.38506
196 2 2 -0.058306 5.95020 1.25390 14.21586
197 2 4 0.062038 8.96649 0.33442 15.44989
198 2 4 0.061767 7.93184 1.17929 17.52753
199 2 4 0.061758 5.62914 2.07190 17.48605
200 2 4 0.061767 4.36109 2.11965 15.36692
201 2 4 0.062038 5.39575 1.27478 13.28928
202 2 3 0.034915 8.92660 -0.00406 13.14947
203 2 3 0.027687 6.77563 1.46140 11.60770
204 2 3 0.027687 8.42088 1.03998 11.06336
205 2 2 -0.044235 9.78282 2.55267 12.77182
206 2 2 -0.058306 10.70669 2.18261 11.80145
207 2 2 -0.061493 12.04915 2.04744 12.13557
208 2 2 -0.061741 12.46773 2.28233 13.44007
209 2 2 -0.061493 11.54386 2.65238 14.41044
210 2 2 -0.058306 10.20141 2.78755 14.07632
211 2 4 0.062038 10.38145 2.00011 10.78788
212 2 4 0.061767 12.76697 1.75992 11.38161
213 2 4 0.061758 13.51079 2.17730 13.69968
214 2 4 0.061767 11.86910 2.83488 15.42401
215 2 4 0.062038 9.48358 3.07507 14.83028
216 2 3 0.034915 7.75072 2.97990 13.29219
217 2 3 0.027687 8.60071 3.46517 10.43120
218 2 3 0.027687 8.78099 4.67512 11.72899
219 2 2 -0.044235 6.23234 4.86866 12.43323
220 2 2 -0.058306 6.68201 6.10696 12.87653
221 2 2 -0.061493 6.19567 6.63811 14.06541
222 2 2 -0.061741 5.25965 5.93096 14.81100
223 2 2 -0.061493 4.80997 4.69266 14.36771
224 2 2 -0.058306 5.29631 4.16151 13.17883
225 2 4 0.062038 7.40928 6.65639 12.29722
226 2 4 0.061767 6.54506 7.60024 14.40984
227 2 4 0.061758 4.88177 6.34365 15.73474
228 2 4 0.061767 4.08270 4.14322 14.94702
229 2 4 0.062038 4.94693 3.19938 12.83440
230 2 3 0.034915 6.16333 3.42711 10.85212
231 2 3 0.027687 7.35986 6.13692 10.24191
232 2 3 0.027687 5.61926 5.77331 10.10462
233 2 2 -0.044244 5.88368 3.68622 8.39727
234 2 2 -0.058306 6.28581 2.37609 8.62952
235 2 2 -0.061493 5.39887 1.32804 8.41266
236 2 2 -0.061741 4.10980 1.59012 7.96355
237 2 2 -0.061493 3.70767 2.90026 7.73130
238 2 2 -0.058306 4.59461 3.94831 7.94816
239 2 4 0.062038 7.28740 2.17246 8.97848
240 2 4 0.061767 5.71132 0.31010 8.59312
241 2 4 0.061758 3.42067 0.77581 7.79506
242 2 4 0.061767 2.70608 3.10389 7.38235
243 2 4 0.062038 4.28216 4.96625 7.76770
244 2 3 0.034906 7.87237 4.46142 8.56144
245 2 3 0.027419 5.69681 6.39151 7.74091
246 2 3 0.027419 6.56326 5.35154 6.57967
247 2 2 -0.047337 9.00737 6.21050 6.98138
248 2 2 -0.058572 9.26245 6.05724 5.62361
249 2 2 -0.061501 10.42022 5.41370 5.20226
250 2 2 -0.061742 11.32290 4.92343 6.13869
251 2 2 -0.061501 11.06782 5.07670 7.49646
252 2 2 -0.058572 9.91005 5.72023 7.91781
253 2 4 0.062029 8.56108 6.43817 4.89602
254 2 4 0.061766 10.61841 5.29462 4.14731
255 2 4 0.061758 12.22247 4.42341 5.81132
256 2 4 0.061766 11.76919 4.69577 8.22404
257 2 4 0.062029 9.71186 5.83932 8.97276
258 2 3 0.031335 7.90485 7.33751 8.42950
259 2 3 0.023554 8.35474 -6.81330 17.94550
260 2 3 0.031335 7.53932 7.72315 6.74483
261 3 1 -0.058379 5.90331 0.64302 -3.17627
262 3 1 -0.018134 5.22907 1.81933 -2.46731
263 3 1 -0.039597 6.17468 2.64182 -1.58968
264 3 1 -0.014764 5.58904 3.97665 -1.12475
265 3 1 -0.039327 6.54277 4.80909 -0.26549
266 3 1 -0.014755 5.98227 6.17265 0.14370
267 3 1 -0.039327 7.00069 7.08254 0.83352
268 3 1 -0.014755 7.80798 6.39107 1.93399
269 3 1 -0.039327 8.71425 7.33464 2.72724
270 3 1 -0.014755 9.72062 8.10084 1.86640
271 3 1 -0.039327 10.79422 8.83683 2.67051
272 3 1 -0.014755 10.23514 9.81157 3.70888
273 3 1 -0.039335 11.30130 10.66490 4.39883
274 3 1 -0.015007 10.73282 11.79288 5.26220
275 3 1 -0.042196 11.79217 12.57310 6.04317
276 3 1 -0.027132 12.89201 13.17671 5.16744
277 3 3 0.023554 6.69989 1.03624 -3.80789
278 3 3 0.023554 6.32522 -0.01634 -2.41776
279 3 2 -0.044513 4.64459 2.73276 -3.51809
280 3 2 -0.058315 5.48278 3.39446 -4.40785
281 3 2 -0.061493 4.94475 4.23530 -5.37512
282 3 2 -0.061741 3.56852 4.41444 -5.45263
283 3 2 -0.061493 2.73033 3.75273 -4.56286
284 3 2 -0.058315 3.26836 2.91190 -3.59559
285 3 4 0.062038 6.55208 3.25528 -4.34763
286 3 4 0.061767 5.59601 4.74943 -6.06645
287 3 4 0.061758 3.15048 5.06775 -6.20417
288 3 4 0.061767 1.66103 3.89192 -4.62308
289 3 4 0.062038 2.61710 2.39777 -2.90426
290 3 3 0.034630 4.43249 1.42612 -1.83569
291 3 3 0.027678 7.07964 2.84676 -2.16165
292 3 3 0.027678 6.42157 2.05147 -0.70728
293 3 2 -0.044235 4.34799 3.69157 -0.31320
294 3 2 -0.058306 3.10693 4.12368 -0.76615
295 3 2 -0.061493 1.96450 3.86126 -0.01909
296 3 2 -0.061741 2.06313 3.16674 1.18091
297 3 2 -0.061493 3.30419 2.73463 1.63386
298 3 2 -0.058306 4.44661 2.99705 0.88680
299 3 4 0.062038 3.03030 4.66331 -1.69853
300 3 4 0.061767 1.00023 4.19700 -0.37102
301 3 4 0.061758 1.17549 2.96284 1.76136
302 3 4 0.061767 3.38082 2.19500 2.56623
303 3 4 0.062038 5.41089 2.66131 1.23873
304 3 3 0.034915 5.32695 4.56033 -2.00720
305 3 3 0.027687 7.45882 4.97289 -0.83304
306 3 3 0.027687 6.76576 4.24577 0.64063
307 3 2 -0.044235 5.48788 6.87311 -1.09929
308 3 2 -0.058306 6.37587 7.18056 -2.12352
309 3 2 -0.061493 5.92077 7.82535 -3.26774
310 3 2 -0.061741 4.57767 8.16269 -3.38772
311 3 2 -0.061493 3.68968 7.85523 -2.36350
312 3 2 -0.058306 4.14478 7.21044 -1.21928
313 3 4 0.062038 7.41943 6.91846 -2.03029
314 3 4 0.061767 6.61072 8.06424 -4.06354
315 3 4 0.061758 4.22406 8.66367 -4.27675
316 3 4 0.061767 2.64612 8.11733 -2.45672
317 3 4 0.062038 3.45483 6.97156 -0.42348
318 3 3 0.034915 5.15145 6.00830 0.82987
319 3 3 0.027687 6.46366 7.91995 1.27900
320 3 3 0.027687 7.69651 7.44971 0.07912
321 3 2 -0.044235 6.83974 5.74533 2.89608
322 3 2 -0.058306 5.72943 6.45175 3.34360
323 3 2 -0.061493 4.83813 5.85733 4.22924
324 3 2 -0.061741 5.05714 4.55649 4.66735
325 3 2 -0.061493 6.16746 3.85007 4.21983
326 3 2 -0.058306 7.05875 4.44449 3.33420
327 3 4 0.062038 5.55926 7.46248 3.00320
328 3 4 0.061767 3.97544 6.40621 4.57695
329 3 4 0.061758 4.36462 4.09464 5.35547
330 3 4 0.061767 6.33763 2.83935 4.56024
331 3 4 0.062038 7.92144 3.89562 2.98648
332 3 3 0.034915 8.43247 5.62728 1.47059
333 3 3 0.027687 9.26874 6.74316 3.45579
334 3 3 0.027687 8.08445 8.05955 3.24296
335 3 2 -0.044235 10.40748 7.11525 0.95156
336 3 2 -0.058306 10.23366 7.20659 -0.42450
337 3 2 -0.061493 10.86594 6.29932 -1.26663
338 3 2 -0.061741 11.67203 5.30070 -0.73270
339 3 2 -0.061493 11.84584 5.20936 0.64336
340 3 2 -0.058306 11.21357 6.11663 1.48549
341 3 4 0.062038 9.60735 7.98249 -0.83935
342 3 4 0.061767 10.73088 6.37029 -2.33580
343 3 4 0.061758 12.16329 4.59577 -1.38702
344 3 4 0.061767 12.47216 4.43345 1.05821
345 3 4 0.062038 11.34862 6.04566 2.55466
346 3 3 0.034915 9.17423 8.83503 1.27434
347 3 3 0.027687 11.41646 9.39934 1.97446
348 3 3 0.027687 11.40013 8.09471 3.19036
349 3 2 -0.044235 9.26497 10.73716 3.01450
350 3 2 -0.058306 9.64889 11.40570 1.85788
351 3 2 -0.061493 8.75583 12.25773 1.21869
352 3 2 -0.061741 7.47884 12.44123 1.73611
353 3 2 -0.061493 7.09492 11.77270 2.89273
354 3 2 -0.058306 7.98798 10.92067 3.53193
355 3 4 0.062038 10.64108 11.26312 1.45585
356 3 4 0.061767 9.05412 12.77717 0.32002
357 3 4 0.061758 6.78494 13.10324 1.23947
358 3 4 0.061767 6.10273 11.91528 3.29476
359 3 4 0.062038 7.68969 10.40123 4.43059
360 3 3 0.034915 9.71291 9.23476 4.47220
361 3 3 0.027687 11.93341 11.10899 3.62986
362 3 3 0.027687 11.89880 10.01422 5.03735
363 3 2 -0.044244 9.76491 11.18927 6.25160
364 3 2 -0.058306 8.49409 11.73239 6.40042
365 3 2 -0.061493 7.60311 11.17675 7.31119
366 3 2 -0.061741 7.98294 10.07800 8.07314
367 3 2 -0.061493 9.25375 9.53488 7.92432
368 3 2 -0.058306 10.14474 10.09052 7.01355
369 3 4 0.062038 8.19897 12.58609 5.80840
370 3 4 0.061767 6.61571 11.59874 7.42682
371 3 4 0.061758 7.29066 9.64628 8.78080
372 3 4 0.061767 9.54887 8.68117 8.51634
373 3 4 0.062038 11.13214 9.66853 6.89792
374 3 3 0.034906 10.20701 12.49018 4.60997
375 3 3 0.027419 12.25842 11.89452 6.75748
376 3 3 0.027419 11.29546 13.38454 6.57510
377 3 2 -0.047337 12.27939 14.27036 4.32558
378 3 2 -0.058572 11.89807 14.00751 3.01501
379 3 2 -0.061501 11.33414 15.01425 2.24006
380 3 2 -0.061742 11.15153 16.28385 2.77568
381 3 2 -0.061501 11.53285 16.54670 4.08625
382 3 2 -0.058572 12.09678 15.53996 4.86120
383 3 4 0.062029 12.03995 13.02107 2.59884
384 3 4 0.061766 11.03786 14.81003 1.22177
385 3 4 0.061758 10.71336 17.06606 2.17355
386 3 4 0.061766 11.39097 17.53314 4.50241
387 3 4 0.062029 12.39306 15.74418 5.87949
388 3 3 0.031335 13.28475 12.39067 4.52246
389 3 3 0.023554 5.22964 0.05707 -3.80151
390 3 3 0.031335 13.72241 13.60349 5.72993
391 4 1 -0.058379 14.50774 -2.82782 14.13406
392 4 1 -0.018134 15.60628 -3.89276 14.13240
393 4 1 -0.039597 15.98293 -4.39612 12.73752
394 4 1 -0.014764 16.39335 -3.28785 11.76582
395 4 1 -0.039327 17.62562 -2.49660 12.20890
396 4 1 -0.014755 18.10707 -1.46862 11.18305
397 4 1 -0.039327 19.49261 -0.89272 11.48225
398 4 1 -0.014755 19.92217 0.22309 10.52761
399 4 1 -0.039327 21.22607 0.91653 10.92747
400 4 1 -0.014755 21.64034 2.05173 9.98906
401 4 1 -0.039327 22.88903 2.81025 10.44328
402 4 1 -0.014755 23.50117 3.70452 9.36324
403 4 1 -0.039335 24.62476 4.61133 9.86934
404 4 1 -0.015007 24.15077 5.72874 10.80080
405 4 1 -0.042196 25.28662 6.49603 11.48053
406 4 1 -0.027132 25.99326 5.71054 12.58712
407 4 3 0.023554 14.85529 -1.97790 13.54674
408 4 3 0.023554 13.61716 -3.25530 13.67338
409 4 2 -0.044513 15.12482 -5.07017 14.94603
410 4 2 -0.058315 15.81424 -5.45223 16.09095
411 4 2 -0.061493 15.37103 -6.53607 16.83992
412 4 2 -0.061741 14.23841 -7.23785 16.44398
413 4 2 -0.061493 13.54899 -6.85579 15.29906
414 4 2 -0.058315 13.99220 -5.77195 14.55009
415 4 4 0.062038 16.69426 -4.90696 16.39858
416 4 4 0.061767 15.90670 -6.83292 17.72950
417 4 4 0.061758 13.89405 -8.07997 17.02591
418 4 4 0.061767 12.66897 -7.40106 14.99142
419 4 4 0.062038 13.45653 -5.47510 13.66051
420 4 3 0.034630 16.49686 -3.46528 14.59308
421 4 3 0.027678 15.12166 -4.91616 12.31816
422 4 3 0.027678 16.81880 -5.08837 12.83857
423 4 2 -0.044235 16.69293 -3.91941 10.42736
424 4 2 -0.058306 17.89023 -4.59775 10.23135
425 4 2 -0.061493 18.16601 -5.17912 8.99926
426 4 2 -0.061741 17.24448 -5.08215 7.96317
427 4 2 -0.061493 16.04717 -4.40381 8.15918
428 4 2 -0.058306 15.77140 -3.82244 9.39127
429 4 4 0.062038 18.60624 -4.67310 11.03637
430 4 4 0.061767 19.09628 -5.70618 8.84697
431 4 4 0.061758 17.45875 -5.53386 7.00586
432 4 4 0.061767 15.33117 -4.32846 7.35416
433 4 4 0.062038 14.84112 -3.29538 9.54356
434 4 3 0.034915 15.55888 -2.59349 11.66776
435 4 3 0.027687 18.43642 -3.20171 12.39202
436 4 3 0.027687 17.37962 -1.96956 13.13075
437 4 2 -0.044235 17.11706 -0.32879 11.15524
438 4 2 -0.058306 17.02940 0.54213 12.23502
439 4 2 -0.061493 16.11807 1.59137 12.20942
440 4 2 -0.061741 15.29438 1.76969 11.10405
441 4 2 -0.061493 15.38203 0.89877 10.02428
442 4 2 -0.058306 16.29337 -0.15047 10.04987
443 4 4 0.062038 17.66939 0.40357 13.09387
444 4 4 0.061767 16.04996 2.26805 13.04838
445 4 4 0.061758 14.58629 2.58493 11.08416
446 4 4 0.061767 14.74205 1.03732 9.16543
447 4 4 0.062038 16.36148 -0.82716 9.21091
448 4 3 0.034915 18.14163 -1.95134 10.20638
449 4 3 0.027687 20.22063 -1.70093 11.41233
450 4 3 0.027687 19.48370 -0.49065 12.49535
451 4 2 -0.044235 20.10674 -0.37510 9.15349
452 4 2 -0.058306 21.07539 -1.34978 8.94418
453 4 2 -0.061493 21.24529 -1.90044 7.67927
454 4 2 -0.061741 20.44654 -1.47641 6.62366
455 4 2 -0.061493 19.47789 -0.50173 6.83297
456 4 2 -0.058306 19.30799 0.04893 8.09789
457 4 4 0.062038 21.69599 -1.67925 9.76436
458 4 4 0.061767 21.99791 -2.65775 7.51664
459 4 4 0.061758 20.57855 -1.90426 5.64085
460 4 4 0.061767 18.85728 -0.17227 6.01279
461 4 4 0.062038 18.55537 0.80624 8.26052
462 4 3 0.034915 19.13123 0.97262 10.50063
463 4 3 0.027687 22.02129 0.17109 10.93338
464 4 3 0.027687 21.10004 1.32968 11.92823
465 4 2 -0.044235 20.49654 3.03358 9.90077
466 4 2 -0.058306 19.96779 3.37503 8.66144
467 4 2 -0.061493 18.91489 4.27885 8.58016
468 4 2 -0.061741 18.39073 4.84122 9.73822
469 4 2 -0.061493 18.91948 4.49977 10.97755
470 4 2 -0.058306 19.97238 3.59595 11.05882
471 4 4 0.062038 20.37505 2.93807 7.76165
472 4 4 0.061767 18.50407 4.54414 7.61723
473 4 4 0.061758 17.57265 5.54347 9.67507
474 4 4 0.061767 18.51222 4.93672 11.87733
475 4 4 0.062038 20.38320 3.33065 12.02176
476 4 3 0.034915 21.83832 1.62632 9.00522
477 4 3 0.027687 23.63942 2.08090 10.74831
478 4 3 0.027687 22.61746 3.43750 11.29234
479 4 2 -0.044235 24.06188 2.81802 8.27705
480 4 2 -0.058306 25.05052 1.88893 8.57951
481 4 2 -0.061493 25.56668 1.07288 7.57963
482 4 2 -0.061741 25.09419 1.18592 6.27729
483 4 2 -0.061493 24.10555 2.11501 5.97484
484 4 2 -0.058306 23.58940 2.93106 6.97471
485 4 4 0.062038 25.41764 1.80110 9.59139
486 4 4 0.061767 26.33483 0.35100 7.81464
487 4 4 0.061758 25.49523 0.55187 5.50041
488 4 4 0.061767 23.73844 2.20284 4.96295
489 4 4 0.062038 22.82124 3.65294 6.73971
490 4 3 0.034915 22.71170 4.33500 8.95419
491 4 3 0.027687 25.10923 5.06856 9.00659
492 4 3 0.027687 25.34203 3.99569 10.41211
493 4 2 -0.044244 23.33788 6.70845 9.98871
494 4 2 -0.058306 23.96210 7.78670 9.37240
495 4 2 -0.061493 23.21381 8.68854 8.62484
496 4 2 -0.061741 21.84131 8.51215 8.49361
497 4 2 -0.061493 21.21709 7.43390 9.10992
498 4 2 -0.058306 21.96538 6.53205 9.85747
499 4 4 0.062038 25.02850 7.92375 9.47437
500 4 4 0.061767 23.69881 9.52632 8.14598
501 4 4 0.061758 21.25990 9.21286 7.91277
502 4 4 0.061767 20.15069 7.29685 9.00795
503 4 4 0.062038 21.48038 5.69428 10.33634
504 4 3 0.034906 23.52659 5.28492 11.57638
505 4 3 0.027419 24.87136 7.40388 11.91809
506 4 3 0.027419 26.02473 6.75621 10.72185
507 4 2 -0.047337 26.90746 6.65635 13.32860
508 4 2 -0.058572 28.28477 6.56118 13.16722
509 4 2 -0.061501 29.12631 7.43183 13.84977
510 4 2 -0.061742 28.59054 8.39765 14.69370
511 4 2 -0.061501 27.21323 8.49283 14.85509
512 4 2 -0.058572 26.37168 7.62218 14.17254
513 4 4 0.062029 28.70105 5.81075 12.51149
514 4 4 0.061766 30.19646 7.35788 13.72437
515 4 4 0.061758 29.24440 9.07413 15.22403
516 4 4 0.061766 26.79694 9.24325 15.51081
517 4 4 0.062029 25.30154 7.69613 14.29793
518 4 3 0.031335 26.58026 4.91852 12.12211
519 4 3 0.023554 14.23941 -2.46922 15.12779
520 4 3 0.031335 25.31577 5.25444 13.30898
521 5 1 -0.058379 21.99246 27.67400 22.12794
522 5 1 -0.018134 22.22192 26.17960 22.36246
523 5 1 -0.039597 23.41358 25.60485 21.59401
524 5 1 -0.014764 23.75113 24.15823 21.96040
525 5 1 -0.039327 24.23582 23.97784 23.40034
526 5 1 -0.014755 24.81884 22.59366 23.69193
527 5 1 -0.039327 25.21582 22.38103 25.15415
528 5 1 -0.014755 25.71530 20.96850 25.46429
529 5 1 -0.039327 26.83601 20.48785 24.54023
530 5 1 -0.014755 27.17673 19.00429 24.69476
531 5 1 -0.039327 26.09944 18.05926 24.15881
532 5 1 -0.014755 26.35975 16.58255 24.46289
533 5 1 -0.039335 25.36059 15.62677 23.80787
534 5 1 -0.015007 25.48505 14.17682 24.28013
535 5 1 -0.042196 24.68385 13.17844 23.44215
536 5 1 -0.027132 24.70950 11.74831 23.98527
537 5 3 0.023554 22.88942 28.20996 22.43830
538 5 3 0.023554 21.81930 27.82984 21.06312
539 5 2 -0.044513 20.97935 25.43713 21.93251
540 5 2 -0.058315 20.37230 24.53699 22.80047
541 5 2 -0.061493 19.22848 23.85353 22.40469
542 5 2 -0.061741 18.69170 24.07020 21.14095
543 5 2 -0.061493 19.29875 24.97033 20.27300
544 5 2 -0.058315 20.44257 25.65380 20.66878
545 5 4 0.062038 20.78936 24.36865 23.78236
546 5 4 0.061767 18.75681 23.15414 23.07907
547 5 4 0.061758 17.80297 23.53916 20.83344
548 5 4 0.061767 18.88168 25.13868 19.29110
549 5 4 0.062038 20.91424 26.35318 19.99439
550 5 3 0.034630 22.39508 26.02376 23.42727
551 5 3 0.027678 24.28618 26.22300 21.80512
552 5 3 0.027678 23.18347 25.64256 20.52924
553 5 2 -0.044235 24.83958 23.67665 21.03117
554 5 2 -0.058306 26.14175 24.13667 21.18870
555 5 2 -0.061493 27.14371 23.69337 20.33332
556 5 2 -0.061741 26.84348 22.79004 19.32042
557 5 2 -0.061493 25.54130 22.33002 19.16290
558 5 2 -0.058306 24.53935 22.77332 20.01827
559 5 4 0.062038 26.37502 24.83854 21.97570
560 5 4 0.061767 28.15547 24.05079 20.45571
561 5 4 0.061758 27.62197 22.44560 18.65581
562 5 4 0.061767 25.30803 21.62815 18.37589
563 5 4 0.062038 23.52759 22.41590 19.89588
564 5 3 0.034915 22.85473 23.55335 21.82361
565 5 3 0.027687 23.38965 24.13947 24.06816
566 5 3 0.027687 25.00801 24.72175 23.59635
567 5 2 -0.044235 23.78242 21.55764 23.32779
568 5 2 -0.058306 22.49505 21.65127 23.84355
569 5 2 -0.061493 21.54099 20.69759 23.50835
570 5 2 -0.061741 21.87430 19.65028 22.65738
571 5 2 -0.061493 23.16167 19.55665 22.14162
572 5 2 -0.058306 24.11573 20.51033 22.47682
573 5 4 0.062038 22.23607 22.46501 24.50473
574 5 4 0.061767 20.54073 20.77033 23.90909
575 5 4 0.061758 21.13302 18.90929 22.39694
576 5 4 0.061767 23.42064 18.74291 21.48043
577 5 4 0.062038 25.11598 20.43759 22.07608
578 5 3 0.034915 25.70693 22.46024 23.07419
579 5 3 0.027687 24.34351 22.57911 25.77700
580 5 3 0.027687 26.01102 23.08553 25.39792
581 5 2 -0.044235 26.23173 20.95037 26.88312
582 5 2 -0.058306 25.59551 20.17368 27.84442
583 5 2 -0.061493 26.07090 20.15699 29.15049
584 5 2 -0.061741 27.18249 20.91697 29.49527
585 5 2 -0.061493 27.81871 21.69366 28.53397
586 5 2 -0.058306 27.34332 21.71035 27.22790
587 5 4 0.062038 24.73183 19.58319 27.57653
588 5 4 0.061767 25.57657 19.55352 29.89740
589 5 4 0.061758 27.55185 20.90400 30.51006
590 5 4 0.061767 28.68239 22.28415 28.80186
591 5 4 0.062038 27.83765 22.31382 26.48099
592 5 3 0.034915 24.87522 20.28062 25.36850
593 5 3 0.027687 27.73199 21.06855 24.75956
594 5 3 0.027687 26.52677 20.66155 23.50956
595 5 2 -0.044235 28.45924 18.73302 23.94530
596 5 2 -0.058306 29.53268 18.13761 24.59746
597 5 2 -0.061493 30.71327 17.88790 23.90756
598 5 2 -0.061741 30.82041 18.23360 22.56550
599 5 2 -0.061493 29.74697 18.82901 21.91335
600 5 2 -0.058306 28.56638 19.07873 22.60325
601 5 4 0.062038 29.44943 17.86900 25.64021
602 5 4 0.061767 31.54731 17.42527 24.41427
603 5 4 0.061758 31.73770 18.03958 22.02947
604 5 4 0.061767 29.83022 19.09762 20.87060
605 5 4 0.062038 27.73234 19.54135 22.09654
606 5 3 0.034915 27.31762 18.79502 25.75517
607 5 3 0.027687 26.04619 18.18081 23.07692
608 5 3 0.027687 25.14649 18.33765 24.60881
609 5 2 -0.044235 26.28936 16.38814 25.95866
610 5 2 -0.058306 27.45481 16.18699 26.68898
611 5 2 -0.061493 27.39000 16.00803 28.06589
612 5 2 -0.061741 26.15975 16.03020 28.71248
613 5 2 -0.061493 24.99429 16.23135 27.98216
614 5 2 -0.058306 25.05910 16.41031 26.60525
615 5 4 0.062038 28.41069 16.16976 26.18660
616 5 4 0.061767 28.29553 15.85175 28.63333
617 5 4 0.061758 26.10940 15.89115 29.78230
618 5 4 0.061767 24.03841 16.24858 28.48454
619 5 4 0.062038 24.15357 16.56659 26.03781
620 5 3 0.034915 27.35799 16.33103 24.10461
621 5 3 0.027687 25.52222 15.64987 22.73017
622 5 3 0.027687 24.35372 15.97541 24.03760
623 5 2 -0.044244 26.94161 13.78320 24.21996
624 5 2 -0.058306 27.56805 13.26293 25.34646
625 5 2 -0.061493 28.90885 12.90060 25.29107
626 5 2 -0.061741 29.62321 13.05854 24.10919
627 5 2 -0.061493 28.99677 13.57881 22.98270
628 5 2 -0.058306 27.65597 13.94114 23.03808
629 5 4 0.062038 27.01301 13.14022 26.26476
630 5 4 0.061767 29.39558 12.49636 26.16634
631 5 4 0.061758 30.66498 12.77701 24.06616
632 5 4 0.061767 29.55181 13.70152 22.06440
633 5 4 0.062038 27.16924 14.34538 22.16282
634 5 3 0.034906 25.12995 14.12126 25.30917
635 5 3 0.027419 25.09869 13.16833 22.43423
636 5 3 0.027419 23.64703 13.51332 23.41117
637 5 2 -0.047337 24.03046 11.74236 25.33397
638 5 2 -0.058572 24.71687 11.29219 26.45570
639 5 2 -0.061501 24.09179 11.28671 27.69721
640 5 2 -0.061742 22.78031 11.73141 27.81699
641 5 2 -0.061501 22.09390 12.18159 26.69526
642 5 2 -0.058572 22.71897 12.18706 25.45375
643 5 4 0.062029 25.73586 10.94666 26.36263
644 5 4 0.061766 24.62512 10.93693 28.56877
645 5 4 0.061758 22.29464 11.72715 28.78162
646 5 4 0.061766 21.07490 12.52711 26.78832
647 5 4 0.062029 22.18564 12.53684 24.58219
648 5 3 0.031335 25.75021 11.44330 24.09471
649 5 3 0.023554 21.14350 28.08346 22.67539
650 5 3 0.031335 24.20635 11.02240 23.34652
651 6 1 -0.058379 16.98796 19.35870 -0.19113
652 6 1 -0.018134 15.86619 20.30043 -0.63345
653 6 1 -0.039597 15.30332 21.16991 0.49265
654 6 1 -0.014764 14.04923 21.95576 0.10455
655 6 1 -0.039327 13.50738 22.85304 1.21908
656 6 1 -0.014755 12.43860 23.84478 0.75532
657 6 1 -0.039327 11.95612 24.79730 1.85114
658 6 1 -0.014755 10.77919 25.68123 1.43348
659 6 1 -0.039327 10.26546 26.59928 2.54441
660 6 1 -0.014755 8.98130 27.35032 2.18697
661 6 1 -0.039327 7.87927 26.45933 1.61028
662 6 1 -0.014755 6.51631 27.14611 1.50271
663 6 1 -0.039335 5.45545 26.31387 0.77963
664 6 1 -0.015007 4.05658 26.93319 0.80241
665 6 1 -0.042196 3.56148 27.30079 2.20264
666 6 1 -0.027132 2.16685 27.92962 2.22442
667 6 3 0.023554 17.80075 19.96209 0.21309
668 6 3 0.023554 16.59560 18.70095 0.58445
669 6 2 -0.044513 14.74021 19.46454 -1.19343
670 6 2 -0.058315 14.37376 19.59657 -2.52774
671 6 2 -0.061493 13.33727 18.82711 -3.04322
672 6 2 -0.061741 12.66723 17.92563 -2.22439
673 6 2 -0.061493 13.03368 17.79361 -0.89008
674 6 2 -0.058315 14.07017 18.56307 -0.37460
675 6 4 0.062038 14.89437 20.29700 -3.16396
676 6 4 0.061767 13.05254 18.92968 -4.07995
677 6 4 0.061758 11.86190 17.32777 -2.62491
678 6 4 0.061767 12.51308 17.09318 -0.25387
679 6 4 0.062038 14.35490 18.46049 0.66213
680 6 3 0.034630 16.25854 20.95818 -1.40903
681 6 3 0.027678 16.07301 21.88132 0.79192
682 6 3 0.027678 15.05358 20.52139 1.33239
683 6 2 -0.044235 14.38524 22.82657 -1.08241
684 6 2 -0.058306 15.41175 23.75937 -0.99162
685 6 2 -0.061493 15.72106 24.56098 -2.08426
686 6 2 -0.061741 15.00384 24.42979 -3.26768
687 6 2 -0.061493 13.97733 23.49698 -3.35847
688 6 2 -0.058306 13.66803 22.69537 -2.26584
689 6 4 0.062038 15.96901 23.86131 -0.07213
690 6 4 0.061767 16.51863 25.28575 -2.01372
691 6 4 0.061758 15.24417 25.05262 -4.11664
692 6 4 0.061767 13.42007 23.39504 -4.27797
693 6 4 0.062038 12.87045 21.97060 -2.33638
694 6 3 0.034915 13.27093 21.24333 -0.16894
695 6 3 0.027687 14.33998 23.41901 1.63688
696 6 3 0.027687 13.07114 22.21603 1.98850
697 6 2 -0.044235 11.25016 23.05941 0.25440
698 6 2 -0.058306 10.87188 23.14687 -1.08028
699 6 2 -0.061493 9.77789 22.42392 -1.54139
700 6 2 -0.061741 9.06219 21.61351 -0.66783
701 6 2 -0.061493 9.44047 21.52605 0.66684
702 6 2 -0.058306 10.53446 22.24901 1.12796
703 6 4 0.062038 11.42797 23.77654 -1.75901
704 6 4 0.061767 9.48398 22.49187 -2.57840
705 6 4 0.061758 8.21218 21.05179 -1.02611
706 6 4 0.061767 8.88438 20.89638 1.34558
707 6 4 0.062038 10.82838 22.18105 2.16497
708 6 3 0.034915 12.85545 24.44120 -0.05623
709 6 3 0.027687 12.78709 25.44491 2.13075
710 6 3 0.027687 11.64752 24.20130 2.71000
711 6 2 -0.044235 11.22239 26.54266 0.27520
712 6 2 -0.058306 12.27720 27.43363 0.43539
713 6 2 -0.061493 12.68517 28.22661 -0.63083
714 6 2 -0.061741 12.03833 28.12862 -1.85725
715 6 2 -0.061493 10.98352 27.23766 -2.01744
716 6 2 -0.058306 10.57555 26.44468 -0.95121
717 6 4 0.062038 12.77977 27.50976 1.38830
718 6 4 0.061767 13.50473 28.91887 -0.50637
719 6 4 0.061758 12.35532 28.74475 -2.68569
720 6 4 0.061767 10.48095 27.16152 -2.97034
721 6 4 0.062038 9.75599 25.75242 -1.07568
722 6 3 0.034915 9.96041 25.03372 1.11975
723 6 3 0.027687 11.03997 27.33353 2.76598
724 6 3 0.027687 10.07047 25.99064 3.42738
725 6 2 -0.044235 8.45223 28.00564 3.44026
726 6 2 -0.058306 8.26183 29.38203 3.47756
727 6 2 -0.061493 7.77481 29.98527 4.63126
728 6 2 -0.061741 7.47819 29.21211 5.74766
729 6 2 -0.061493 7.66859 27.83572 5.71036
730 6 2 -0.058306 8.15561 27.23248 4.55666
731 6 4 0.062038 8.49230 29.98276 2.61014
732 6 4 0.061767 7.62687 31.05470 4.66024
733 6 4 0.061758 7.09978 29.68081 6.64405
734 6 4 0.061767 7.43812 27.23499 6.57778
735 6 4 0.062038 8.30355 26.16306 4.52768
736 6 3 0.034915 9.22620 28.11247 1.44720
737 6 3 0.027687 7.77230 25.58758 2.25581
738 6 3 0.027687 8.18253 26.14424 0.61185
739 6 2 -0.044235 6.69748 28.44096 0.74731
740 6 2 -0.058306 7.43119 28.46013 -0.43312
741 6 2 -0.061493 7.59796 29.65208 -1.12850
742 6 2 -0.061741 7.03103 30.82486 -0.64345
743 6 2 -0.061493 6.29733 30.80569 0.53698
744 6 2 -0.058306 6.13055 29.61374 1.23236
745 6 4 0.062038 7.87168 27.54890 -0.81000
746 6 4 0.061767 8.16803 29.66697 -2.04567
747 6 4 0.061758 7.16061 31.75097 -1.18374
748 6 4 0.061767 5.85683 31.71691 0.91386
749 6 4 0.062038 5.56048 29.59885 2.14953
750 6 3 0.034915 6.15829 27.35407 2.51102
751 6 3 0.027687 5.40375 25.33607 1.25852
752 6 3 0.027687 5.76140 26.19978 -0.26030
753 6 2 -0.044244 3.08958 25.93936 0.20464
754 6 2 -0.058306 2.33192 26.28921 -0.90696
755 6 2 -0.061493 1.44177 25.37437 -1.45723
756 6 2 -0.061741 1.30928 24.10968 -0.89590
757 6 2 -0.061493 2.06694 23.75982 0.21570
758 6 2 -0.058306 2.95709 24.67467 0.76597
759 6 4 0.062038 2.43486 27.27186 -1.34310
760 6 4 0.061767 0.85308 25.64620 -2.32092
761 6 4 0.061758 0.61766 23.39886 -1.32345
762 6 4 0.061767 1.96400 22.77718 0.65184
763 6 4 0.062038 3.54578 24.40284 1.62966
764 6 3 0.034906 4.07477 27.83992 0.19776
765 6 3 0.027419 4.26363 28.01235 2.63713
766 6 3 0.027419 3.53599 26.39275 2.80506
767 6 2 -0.047337 2.15657 29.09096 1.25939
768 6 2 -0.058572 2.95120 30.20489 1.50399
769 6 2 -0.061501 2.94174 31.27395 0.61566
770 6 2 -0.061742 2.13764 31.22907 -0.51727
771 6 2 -0.061501 1.34301 30.11515 -0.76186
772 6 2 -0.058572 1.35247 29.04609 0.12647
773 6 4 0.062029 3.57596 30.23975 2.38425
774 6 4 0.061766 3.55915 32.13944 0.80570
775 6 4 0.061758 2.13029 32.05971 -1.20748
776 6 4 0.061766 0.71825 30.08028 -1.64212
777 6 4 0.062029 0.73506 28.18059 -0.06358
778 6 3 0.031335 1.44763 27.17629 1.90297
779 6 3 0.023554 17.38896 18.73927 -0.99338
780 6 3 0.031335 1.86146 28.29710 3.20411
781 7 1 -0.058379 31.32520 29.28113 13.93823
782 7 1 -0.018134 30.62276 28.16218 13.16658
783 7 1 -0.039597 31.11330 27.99616 11.72689
784 7 1 -0.014764 30.47028 26.82489 10.98152
785 7 1 -0.039327 30.96786 26.65303 9.54494
786 7 1 -0.014755 30.39854 25.42488 8.83190
787 7 1 -0.039327 30.95047 25.21307 7.42073
788 7 1 -0.014755 30.40154 23.96982 6.71794
789 7 1 -0.039327 31.12312 23.62232 5.41430
790 7 1 -0.014755 30.80879 22.22233 4.88314
791 7 1 -0.039327 31.40949 21.09027 5.71891
792 7 1 -0.014755 31.25822 19.70407 5.08925
793 7 1 -0.039335 29.83392 19.37914 4.63463
794 7 1 -0.015007 29.69135 18.01094 3.96486
795 7 1 -0.042196 28.33235 17.78196 3.30033
796 7 1 -0.027132 27.14001 17.97471 4.23951
797 7 3 0.023554 32.39221 29.05999 13.96448
798 7 3 0.023554 31.15559 30.21907 13.40946
799 7 2 -0.044513 30.85773 26.86283 13.89909
800 7 2 -0.058315 32.14014 26.33279 13.98020
801 7 2 -0.061493 32.35643 25.13670 14.65450
802 7 2 -0.061741 31.29032 24.47065 15.24769
803 7 2 -0.061493 30.00791 25.00069 15.16658
804 7 2 -0.058315 29.79161 26.19678 14.49228
805 7 4 0.062038 32.96849 26.85030 13.51930
806 7 4 0.061767 33.35284 24.72487 14.71752
807 7 4 0.061758 31.45838 23.54131 15.77161
808 7 4 0.061767 29.17956 24.48318 15.62748
809 7 4 0.062038 28.79521 26.60861 14.42926
810 7 3 0.034630 29.55575 28.38332 13.14033
811 7 3 0.027678 32.19119 27.83576 11.74984
812 7 3 0.027678 30.88810 28.91273 11.18165
813 7 2 -0.044235 28.97801 27.05202 10.94118
814 7 2 -0.058306 28.12105 26.15299 11.56526
815 7 2 -0.061493 26.74737 26.36207 11.52813
816 7 2 -0.061741 26.23064 27.47017 10.86692
817 7 2 -0.061493 27.08759 28.36920 10.24284
818 7 2 -0.058306 28.46128 28.16012 10.27997
819 7 4 0.062038 28.52254 25.29202 12.07901
820 7 4 0.061767 26.08153 25.66354 12.01302
821 7 4 0.061758 25.16331 27.63261 10.83806
822 7 4 0.061767 26.68611 29.23017 9.72909
823 7 4 0.062038 29.12712 28.85865 9.79508
824 7 3 0.034915 30.68951 25.90917 11.53060
825 7 3 0.027687 32.05374 26.56133 9.56842
826 7 3 0.027687 30.68452 27.53930 8.97718
827 7 2 -0.044235 30.72823 24.20390 9.65689
828 7 2 -0.058306 32.04458 23.94615 10.02143
829 7 2 -0.061493 32.34808 22.82220 10.78085
830 7 2 -0.061741 31.33523 21.95600 11.17574
831 7 2 -0.061493 30.01888 22.21375 10.81120
832 7 2 -0.058306 29.71538 23.33770 10.05177
833 7 4 0.062038 32.83155 24.61916 9.71461
834 7 4 0.061767 33.37085 22.62193 11.06409
835 7 4 0.061758 31.57104 21.08271 11.76579
836 7 4 0.061767 29.23191 21.54074 11.11801
837 7 4 0.062038 28.69261 23.53797 9.76853
838 7 3 0.034915 29.31711 25.54174 8.76154
839 7 3 0.027687 32.03402 25.11624 7.48892
840 7 3 0.027687 30.69502 26.08576 6.81969
841 7 2 -0.044235 28.94441 24.20943 6.40259
842 7 2 -0.058306 27.96208 23.47251 7.05381
843 7 2 -0.061493 26.62075 23.69307 6.76353
844 7 2 -0.061741 26.26173 24.65055 5.82202
845 7 2 -0.061493 27.24405 25.38747 5.17080
846 7 2 -0.058306 28.58539 25.16691 5.46108
847 7 4 0.062038 28.24103 22.72856 7.78535
848 7 4 0.061767 25.85750 23.12050 7.26952
849 7 4 0.061758 25.21954 24.82192 5.59648
850 7 4 0.061767 26.96511 26.13141 4.43927
851 7 4 0.062038 29.34863 25.73948 4.95510
852 7 3 0.034915 30.49768 23.12306 7.39754
853 7 3 0.027687 32.19680 23.68749 5.59054
854 7 3 0.027687 30.82867 24.34885 4.65697
855 7 2 -0.044235 31.35528 22.11528 3.47958
856 7 2 -0.058306 32.72031 21.94995 3.27597
857 7 2 -0.061493 33.22337 21.85141 1.98394
858 7 2 -0.061741 32.36139 21.91820 0.89553
859 7 2 -0.061493 30.99636 22.08353 1.09914
860 7 2 -0.058306 30.49331 22.18207 2.39117
861 7 4 0.062038 33.39004 21.89805 4.12164
862 7 4 0.061767 34.28397 21.72295 1.82574
863 7 4 0.061758 32.75226 21.84164 -0.10834
864 7 4 0.061767 30.32663 22.13543 0.25347
865 7 4 0.062038 29.43271 22.31053 2.54937
866 7 3 0.034915 29.72601 22.09805 4.86808
867 7 3 0.027687 30.91199 21.08085 6.68871
868 7 3 0.027687 32.47265 21.29086 5.85146
869 7 2 -0.044235 31.67567 18.67278 6.11016
870 7 2 -0.058306 32.65001 17.73406 5.79145
871 7 2 -0.061493 33.03428 16.78473 6.73124
872 7 2 -0.061741 32.44421 16.77410 7.98973
873 7 2 -0.061493 31.46987 17.71281 8.30844
874 7 2 -0.058306 31.08560 18.66215 7.36866
875 7 4 0.062038 33.10848 17.74232 4.81363
876 7 4 0.061767 33.79133 16.05537 6.48360
877 7 4 0.061758 32.74278 16.03648 8.71992
878 7 4 0.061767 31.01139 17.70455 9.28626
879 7 4 0.062038 30.32855 19.39151 7.61629
880 7 3 0.034915 31.91450 19.65021 4.22063
881 7 3 0.027687 29.52047 20.14229 3.92226
882 7 3 0.027687 29.18322 19.40078 5.50882
883 7 2 -0.044244 30.76177 17.88841 2.90691
884 7 2 -0.058306 31.60206 16.78124 2.89336
885 7 2 -0.061493 32.58742 16.66845 1.91948
886 7 2 -0.061741 32.73249 17.66284 0.95915
887 7 2 -0.061493 31.89221 18.77002 0.97269
888 7 2 -0.058306 30.90685 18.88280 1.94657
889 7 4 0.062038 31.48934 16.00862 3.63952
890 7 4 0.061767 33.24030 15.80820 1.90896
891 7 4 0.061758 33.49810 17.57521 0.20246
892 7 4 0.061767 32.00493 19.54263 0.22653
893 7 4 0.062038 30.25396 19.74305 1.95709
894 7 3 0.034906 29.83368 17.24243 4.72462
895 7 3 0.027419 28.30593 16.76072 2.92023
896 7 3 0.027419 28.23341 18.48596 2.47407
897 7 2 -0.047337 25.87386 17.87723 3.42253
898 7 2 -0.058572 25.13772 16.69817 3.41952
899 7 2 -0.061501 23.97219 16.60844 2.66747
900 7 2 -0.061742 23.54280 17.69777 1.91842
901 7 2 -0.061501 24.27893 18.87684 1.92143
902 7 2 -0.058572 25.44446 18.96657 2.67349
903 7 4 0.062029 25.47135 15.85178 4.00151
904 7 4 0.061766 23.40023 15.69233 2.66513
905 7 4 0.061758 22.63721 17.62806 1.33409
906 7 4 0.061766 23.94530 19.72323 1.33944
907 7 4 0.062029 26.01642 19.88268 2.67583
908 7 3 0.031335 27.21488 18.96563 4.68736
909 7 3 0.023554 30.97573 29.39941 14.96389
910 7 3 0.031335 27.08526 17.24019 5.04299
911 8 1 -0.058379 27.47536 30.27999 22.81557
912 8 1 -0.018134 27.73653 31.59689 23.54937
913 8 1 -0.039597 29.04772 32.27963 23.15495
914 8 1 -0.014764 29.01702 32.93456 21.77255
915 8 1 -0.039327 30.37998 33.43599 21.29109
916 8 1 -0.014755 31.45915 32.35260 21.24018
917 8 1 -0.039327 31.13258 31.19277 20.29729
918 8 1 -0.014755 32.28799 30.21022 20.09595
919 8 1 -0.039327 32.88358 29.67444 21.39945
920 8 1 -0.014755 33.98505 28.63180 21.19805
921 8 1 -0.039327 34.76580 28.29758 22.47069
922 8 1 -0.014755 33.88213 27.93094 23.66468
923 8 1 -0.039335 34.66196 27.61971 24.94370
924 8 1 -0.015007 35.63289 28.72458 25.36498
925 8 1 -0.042196 36.52575 28.35001 26.54963
926 8 1 -0.027132 37.40465 29.49657 27.05346
927 8 3 0.023554 27.44479 30.48563 21.74558
928 8 3 0.023554 28.29577 29.59732 23.03689
929 8 2 -0.044513 27.77888 31.31202 25.03164
930 8 2 -0.058315 26.64150 31.50000 25.80826
931 8 2 -0.061493 26.68049 31.23777 27.17275
932 8 2 -0.061741 27.85684 30.78755 27.76061
933 8 2 -0.061493 28.99422 30.59957 26.98399
934 8 2 -0.058315 28.95524 30.86180 25.61951
935 8 4 0.062038 25.72750 31.84981 25.35151
936 8 4 0.061767 25.79677 31.38383 27.77616
937 8 4 0.061758 27.88713 30.58380 28.82078
938 8 4 0.061767 29.90822 30.24975 27.44075
939 8 4 0.062038 29.83896 30.71574 25.01609
940 8 3 0.034630 26.91612 32.27957 23.32805
941 8 3 0.027678 29.83827 31.52922 23.15973
942 8 3 0.027678 29.26658 33.05096 23.89336
943 8 2 -0.044235 28.07261 34.11148 21.82767
944 8 2 -0.058306 26.98951 34.17473 20.95876
945 8 2 -0.061493 26.12015 35.25812 21.00949
946 8 2 -0.061741 26.33388 36.27826 21.92913
947 8 2 -0.061493 27.41697 36.21500 22.79804
948 8 2 -0.058306 28.28634 35.13161 22.74731
949 8 4 0.062038 26.82344 33.38211 20.24422
950 8 4 0.061767 25.27860 35.30727 20.33437
951 8 4 0.061758 25.65840 37.12003 21.96855
952 8 4 0.061767 27.58304 37.00763 23.51258
953 8 4 0.062038 29.12788 35.08247 23.42243
954 8 3 0.034915 28.65041 32.20046 21.05506
955 8 3 0.027687 30.71487 34.21978 21.97052
956 8 3 0.027687 30.25858 33.84433 20.28779
957 8 2 -0.044235 32.74756 32.98983 20.77755
958 8 2 -0.058306 32.92063 33.31344 19.43687
959 8 2 -0.061493 34.10666 33.90002 19.01099
960 8 2 -0.061741 35.11961 34.16299 19.92580
961 8 2 -0.061493 34.94654 33.83938 21.26648
962 8 2 -0.058306 33.76051 33.25280 21.69235
963 8 4 0.062038 32.13359 33.10911 18.72608
964 8 4 0.061767 34.24113 34.15146 17.96931
965 8 4 0.061758 36.04112 34.61876 19.59491
966 8 4 0.061767 35.73358 34.04370 21.97727
967 8 4 0.062038 33.62604 33.00136 22.73403
968 8 3 0.034915 31.58652 31.95013 22.24512
969 8 3 0.027687 30.86413 31.60778 19.32580
970 8 3 0.027687 30.28626 30.64440 20.71097
971 8 2 -0.044235 31.77751 29.03817 19.29232
972 8 2 -0.058306 32.25181 28.81942 18.00419
973 8 2 -0.061493 31.78190 27.74051 17.26443
974 8 2 -0.061741 30.83770 26.88035 17.81280
975 8 2 -0.061493 30.36340 27.09911 19.10093
976 8 2 -0.058306 30.83331 28.17801 19.84070
977 8 4 0.062038 32.98543 29.48774 17.57811
978 8 4 0.061767 32.15042 27.57054 16.26357
979 8 4 0.061758 30.47259 26.04207 17.23802
980 8 4 0.061767 29.62978 26.43078 19.52701
981 8 4 0.062038 30.46479 28.34798 20.84155
982 8 3 0.034915 33.07758 30.72019 19.54407
983 8 3 0.027687 32.08160 29.21637 21.97832
984 8 3 0.027687 33.30503 30.51379 21.95259
985 8 2 -0.044235 34.95754 29.16326 20.17242
986 8 2 -0.058306 35.17899 28.45941 18.99443
987 8 2 -0.061493 36.07420 28.94864 18.05032
988 8 2 -0.061741 36.74796 30.14172 18.28419
989 8 2 -0.061493 36.52652 30.84557 19.46218
990 8 2 -0.058306 35.63131 30.35634 20.40630
991 8 4 0.062038 34.65548 27.53241 18.81272
992 8 4 0.061767 36.24625 28.40177 17.13505
993 8 4 0.061758 37.44352 30.52185 17.55063
994 8 4 0.061767 37.05002 31.77257 19.64390
995 8 4 0.062038 35.45925 30.90322 21.32157
996 8 3 0.034915 33.52430 27.71526 20.82958
997 8 3 0.027687 35.36364 29.16744 22.74279
998 8 3 0.027687 35.41998 27.45212 22.25776
999 8 2 -0.044235 33.07162 26.71131 23.29633
1000 8 2 -0.058306 31.68291 26.76983 23.30921
1001 8 2 -0.061493 30.93681 25.64712 22.97014
1002 8 2 -0.061741 31.57942 24.46590 22.61820
1003 8 2 -0.061493 32.96812 24.40738 22.60532
1004 8 2 -0.058306 33.71423 25.53008 22.94439
1005 8 4 0.062038 31.18362 27.68762 23.58266
1006 8 4 0.061767 29.85781 25.69259 22.98014
1007 8 4 0.061758 30.99971 23.59358 22.35475
1008 8 4 0.061767 33.46742 23.48959 22.33187
1009 8 4 0.062038 34.79322 25.48462 22.93439
1010 8 3 0.034915 33.21587 28.76964 23.86659
1011 8 3 0.027687 35.23402 26.70627 24.78103
1012 8 3 0.027687 33.94615 27.46794 25.75159
1013 8 2 -0.044244 34.82632 29.94256 25.74718
1014 8 2 -0.058306 34.88507 31.08903 24.96343
1015 8 2 -0.061493 34.14260 32.21022 25.31525
1016 8 2 -0.061741 33.34139 32.18494 26.45082
1017 8 2 -0.061493 33.28264 31.03847 27.23457
1018 8 2 -0.058306 34.02511 29.91728 26.88275
1019 8 4 0.062038 35.50759 31.10867 24.08112
1020 8 4 0.061767 34.18825 33.10100 24.70629
1021 8 4 0.061758 32.76451 33.05608 26.72418
1022 8 4 0.061767 32.66011 31.01883 28.11688
1023 8 4 0.062038 33.97946 29.02650 27.49170
1024 8 3 0.034906 36.27383 28.95824 24.51487
1025 8 3 0.027419 37.17607 27.53131 26.24155
1026 8 3 0.027419 35.88593 28.02448 27.36985
1027 8 2 -0.047337 38.41083 29.82907 25.97775
1028 8 2 -0.058572 38.46915 31.11543 25.45432
1029 8 2 -0.061501 39.39537 31.42150 24.46410
1030 8 2 -0.061742 40.26327 30.44122 23.99731
1031 8 2 -0.061501 40.20496 29.15486 24.52074
1032 8 2 -0.058572 39.27873 28.84878 25.51096
1033 8 4 0.062029 37.79481 31.87708 25.81701
1034 8 4 0.061766 39.44069 32.42097 24.05741
1035 8 4 0.061758 40.98293 30.67903 23.22794
1036 8 4 0.061766 40.87930 28.39320 24.15806
1037 8 4 0.062029 39.23342 27.84931 25.91766
1038 8 3 0.031335 36.76575 30.35962 27.24068
1039 8 3 0.023554 26.54124 29.79360 23.09656
1040 8 3 0.031335 37.94801 29.26870 27.97049
1041 9 1 -0.058379 11.62337 17.96107 25.73238
1042 9 1 -0.018134 10.11261 17.72363 25.77867
1043 9 1 -0.039597 9.62454 16.63287 24.82320
1044 9 1 -0.014764 8.18158 16.18859 25.07097
1045 9 1 -0.039327 7.57722 15.37080 23.92779
1046 9 1 -0.014755 6.19403 14.79508 24.23800
1047 9 1 -0.039327 5.54564 14.06454 23.06037
1048 9 1 -0.014755 5.56813 14.85379 21.74985
1049 9 1 -0.039327 5.07415 16.29570 21.88324
1050 9 1 -0.014755 4.97035 17.04356 20.55251
1051 9 1 -0.039327 6.31087 17.23591 19.84055
1052 9 1 -0.014755 6.21861 18.05287 18.55021
1053 9 1 -0.039335 7.51647 18.08632 17.74069
1054 9 1 -0.015007 8.74516 18.50296 18.55164
1055 9 1 -0.042196 9.95445 18.88656 17.69643
1056 9 1 -0.027132 11.25812 19.01952 18.48616
1057 9 3 0.023554 12.12367 17.02880 25.99441
1058 9 3 0.023554 11.89235 18.25147 24.71679
1059 9 2 -0.044513 9.73998 17.32134 27.18559
1060 9 2 -0.058315 9.82893 15.98977 27.57433
1061 9 2 -0.061493 9.48591 15.61946 28.86943
1062 9 2 -0.061741 9.05395 16.58071 29.77580
1063 9 2 -0.061493 8.96500 17.91228 29.38706
1064 9 2 -0.058315 9.30802 18.28259 28.09195
1065 9 4 0.062038 10.16456 15.24290 26.87010
1066 9 4 0.061767 9.55502 14.58486 29.17148
1067 9 4 0.061758 8.78743 16.29298 30.78207
1068 9 4 0.061767 8.62938 18.65915 30.09129
1069 9 4 0.062038 9.23891 19.31719 27.78991
1070 9 3 0.034630 9.61231 18.65590 25.51663
1071 9 3 0.027678 10.27339 15.76439 24.93652
1072 9 3 0.027678 9.69397 17.01504 23.80476
1073 9 2 -0.044235 7.33420 17.42259 25.26917
1074 9 2 -0.058306 6.47562 17.50843 26.35893
1075 9 2 -0.061493 5.69558 18.64436 26.54137
1076 9 2 -0.061741 5.77411 19.69446 25.63405
1077 9 2 -0.061493 6.63269 19.60862 24.54429
1078 9 2 -0.058306 7.41273 18.47269 24.36185
1079 9 4 0.062038 6.41460 16.69252 27.06390
1080 9 4 0.061767 5.02848 18.71106 27.38809
1081 9 4 0.061758 5.16804 20.57706 25.77581
1082 9 4 0.061767 6.69371 20.42452 23.83932
1083 9 4 0.062038 8.07983 18.40599 23.51513
1084 9 3 0.034915 8.16245 15.57878 25.97423
1085 9 3 0.027687 8.25038 14.54222 23.70774
1086 9 3 0.027687 7.48993 16.01729 23.05456
1087 9 2 -0.044235 6.33373 13.81862 25.38129
1088 9 2 -0.058306 5.55270 13.96713 26.52148
1089 9 2 -0.061493 5.68130 13.06828 27.57392
1090 9 2 -0.061741 6.59092 12.02090 27.48616
1091 9 2 -0.061493 7.37194 11.87239 26.34596
1092 9 2 -0.058306 7.24335 12.77125 25.29353
1093 9 4 0.062038 4.84595 14.78092 26.58967
1094 9 4 0.061767 5.07446 13.18367 28.45982
1095 9 4 0.061758 6.69083 11.32251 28.30388
1096 9 4 0.061767 8.07870 11.05860 26.27778
1097 9 4 0.062038 7.85019 12.65586 24.40763
1098 9 3 0.034915 5.54046 15.61640 24.53189
1099 9 3 0.027687 4.50653 13.85829 23.31690
1100 9 3 0.027687 6.08010 13.12755 22.90382
1101 9 2 -0.044235 4.68485 14.14151 20.75358
1102 9 2 -0.058306 5.25202 13.33343 19.77510
1103 9 2 -0.061493 4.43893 12.67776 18.85799
1104 9 2 -0.061741 3.05867 12.83016 18.91937
1105 9 2 -0.061493 2.49150 13.63824 19.89785
1106 9 2 -0.058306 3.30459 14.29392 20.81496
1107 9 4 0.062038 6.32444 13.21502 19.72741
1108 9 4 0.061767 4.87961 12.04989 18.09774
1109 9 4 0.061758 2.42692 12.32071 18.20680
1110 9 4 0.061767 1.41908 13.75666 19.94554
1111 9 4 0.062038 2.86391 14.92178 21.57521
1112 9 3 0.034915 6.59423 14.87702 21.38288
1113 9 3 0.027687 5.76909 16.83662 22.52554
1114 9 3 0.027687 4.08570 16.27686 22.34227
1115 9 2 -0.044235 4.37752 18.40617 20.82077
1116 9 2 -0.058306 5.15393 19.39862 21.40755
1117 9 2 -0.061493 4.60822 20.65294 21.65449
1118 9 2 -0.061741 3.28609 20.91481 21.31465
1119 9 2 -0.061493 2.50967 19.92235 20.72787
1120 9 2 -0.058306 3.05539 18.66803 20.48093
1121 9 4 0.062038 6.18120 19.19516 21.67160
1122 9 4 0.061767 5.21148 21.42406 22.11041
1123 9 4 0.061758 2.86208 21.88938 21.50651
1124 9 4 0.061767 1.48240 20.12581 20.46382
1125 9 4 0.062038 2.45213 17.89692 20.02501
1126 9 3 0.034915 4.31182 16.47784 19.89342
1127 9 3 0.027687 6.71071 16.25232 19.59401
1128 9 3 0.027687 6.98881 17.74964 20.52214
1129 9 2 -0.044235 5.13719 17.45058 17.68541
1130 9 2 -0.058306 5.12472 16.08241 17.44037
1131 9 2 -0.061493 4.12924 15.52797 16.64429
1132 9 2 -0.061741 3.14624 16.34172 16.09326
1133 9 2 -0.061493 3.15872 17.70989 16.33830
1134 9 2 -0.058306 4.15420 18.26432 17.13438
1135 9 4 0.062038 5.88848 15.45014 17.86851
1136 9 4 0.061767 4.11955 14.46493 16.45390
1137 9 4 0.061758 2.37278 15.91094 15.47473
1138 9 4 0.061767 2.39495 18.34215 15.91016
1139 9 4 0.062038 4.16389 19.32736 17.32477
1140 9 3 0.034915 5.95354 19.07703 18.81280
1141 9 3 0.027687 7.39054 18.79583 16.92287
1142 9 3 0.027687 7.69444 17.08856 17.33956
1143 9 2 -0.044244 8.36975 19.69367 19.40099
1144 9 2 -0.058306 8.53011 19.64142 20.78071
1145 9 2 -0.061493 8.18453 20.73750 21.56256
1146 9 2 -0.061741 7.67858 21.88583 20.96468
1147 9 2 -0.061493 7.51822 21.93807 19.58495
1148 9 2 -0.058306 7.86380 20.84199 18.80310
1149 9 4 0.062038 8.92322 18.74919 21.24526
1150 9 4 0.061767 8.30913 20.69690 22.63458
1151 9 4 0.061758 7.41007 22.73746 21.57216
1152 9 4 0.061767 7.12511 22.83030 19.12041
1153 9 4 0.062038 7.73920 20.88259 17.73108
1154 9 3 0.034906 9.03075 17.66831 19.19186
1155 9 3 0.027419 9.74522 19.84395 17.21923
1156 9 3 0.027419 10.09268 18.11770 16.93627
1157 9 2 -0.047337 12.27139 19.71894 17.61198
1158 9 2 -0.058572 12.92757 20.85199 18.07862
1159 9 2 -0.061501 13.86031 21.49583 17.27391
1160 9 2 -0.061742 14.13688 21.00663 16.00257
1161 9 2 -0.061501 13.48070 19.87359 15.53594
1162 9 2 -0.058572 12.54795 19.22975 16.34065
1163 9 4 0.062029 12.71268 21.23208 19.06642
1164 9 4 0.061766 14.37015 22.37618 17.63647
1165 9 4 0.061758 14.86160 21.50688 15.37733
1166 9 4 0.061766 13.69558 19.49349 14.54814
1167 9 4 0.062029 12.03811 18.34940 15.97809
1168 9 3 0.031335 11.05971 19.61988 19.37402
1169 9 3 0.023554 11.97108 18.73815 26.41307
1170 9 3 0.031335 11.68206 18.06748 18.80554
1171 10 1 -0.058379 17.86166 13.48168 17.23559
1172 10 1 -0.018134 17.98594 15.00628 17.26808
1173 10 1 -0.039597 19.42899 15.51380 17.23786
1174 10 1 -0.014764 20.20737 15.25353 18.52910
1175 10 1 -0.039327 21.60593 15.87366 18.54840
1176 10 1 -0.014755 22.47509 15.48615 17.35036
1177 10 1 -0.039327 23.88901 16.06917 17.39283
1178 10 1 -0.014755 23.95180 17.57085 17.10662
1179 10 1 -0.039327 23.64584 17.94081 15.65389
1180 10 1 -0.014755 23.41418 19.43622 15.42810
1181 10 1 -0.039327 23.19086 19.81714 13.96320
1182 10 1 -0.014755 22.77052 21.27361 13.75605
1183 10 1 -0.039335 23.64978 22.28590 14.49296
1184 10 1 -0.015007 23.39095 23.74055 14.09560
1185 10 1 -0.042196 24.28449 24.75125 14.81738
1186 10 1 -0.027132 24.18265 26.17561 14.26808
1187 10 3 0.023554 18.33158 13.12026 16.32091
1188 10 3 0.023554 18.38375 13.07803 18.10311
1189 10 2 -0.044513 17.26267 15.56546 16.06629
1190 10 2 -0.058315 17.87266 15.54715 14.81742
1191 10 2 -0.061493 17.20687 16.06190 13.71114
1192 10 2 -0.061741 15.93109 16.59495 13.85372
1193 10 2 -0.061493 15.32110 16.61326 15.10259
1194 10 2 -0.058315 15.98689 16.09851 16.20888
1195 10 4 0.062038 18.86392 15.13298 14.70664
1196 10 4 0.061767 17.68083 16.04767 12.74080
1197 10 4 0.061758 15.41379 16.99490 12.99417
1198 10 4 0.061767 14.32984 17.02743 15.21338
1199 10 4 0.062038 15.51293 16.11274 17.17922
1200 10 3 0.034630 17.51601 15.36770 18.18276
1201 10 3 0.027678 19.40900 16.58937 17.06220
1202 10 3 0.027678 19.94897 15.01580 16.41950
1203 10 2 -0.044235 19.41878 15.82929 19.68093
1204 10 2 -0.058306 19.31126 17.20712 19.82970
1205 10 2 -0.061493 18.58533 17.73713 20.88999
1206 10 2 -0.061741 17.96693 16.88931 21.80152
1207 10 2 -0.061493 18.07445 15.51148 21.65275
1208 10 2 -0.058306 18.80037 14.98147 20.59245
1209 10 4 0.062038 19.79174 17.86585 19.12146
1210 10 4 0.061767 18.50179 18.80767 21.00558
1211 10 4 0.061758 17.40290 17.30111 22.62535
1212 10 4 0.061767 17.59396 14.85274 22.36099
1213 10 4 0.062038 18.88391 13.91093 20.47686
1214 10 3 0.034915 20.31010 14.17564 18.65442
1215 10 3 0.027687 22.11172 15.54698 19.45700
1216 10 3 0.027687 21.49836 16.95832 18.55552
1217 10 2 -0.044235 22.58522 13.98063 17.31324
1218 10 2 -0.058306 22.27311 13.28946 16.14835
1219 10 2 -0.061493 22.37449 11.90358 16.11418
1220 10 2 -0.061741 22.78798 11.20888 17.24489
1221 10 2 -0.061493 23.10009 11.90005 18.40978
1222 10 2 -0.058306 22.99871 13.28593 18.44396
1223 10 4 0.062038 21.95184 13.82922 15.26981
1224 10 4 0.061767 22.13199 11.36655 15.20909
1225 10 4 0.061758 22.86675 10.13208 17.21834
1226 10 4 0.061767 23.42136 11.36028 19.28833
1227 10 4 0.062038 23.24121 13.82296 19.34905
1228 10 3 0.034915 21.98580 15.84286 16.44402
1229 10 3 0.027687 24.49336 15.55379 16.64634
1230 10 3 0.027687 24.30102 15.89350 18.38655
1231 10 2 -0.044235 25.34295 18.05724 17.43559
1232 10 2 -0.058306 26.42238 17.65299 16.65873
1233 10 2 -0.061493 27.70297 18.10073 16.96156
1234 10 2 -0.061741 27.90414 18.95273 18.04126
1235 10 2 -0.061493 26.82471 19.35698 18.81812
1236 10 2 -0.058306 25.54411 18.90924 18.51529
1237 10 4 0.062038 26.26607 16.99101 15.81983
1238 10 4 0.061767 28.54166 17.78664 16.35796
1239 10 4 0.061758 28.89913 19.30061 18.27655
1240 10 4 0.061767 26.98101 20.01896 19.65702
1241 10 4 0.062038 24.70542 19.22333 19.11889
1242 10 3 0.034915 23.22497 18.07105 17.74663
1243 10 3 0.027687 22.74686 17.40598 15.34747
1244 10 3 0.027687 24.48893 17.62903 15.03737
1245 10 2 -0.044235 22.19408 19.85000 16.21565
1246 10 2 -0.058306 20.92333 19.57673 15.72310
1247 10 2 -0.061493 19.80019 19.95763 16.44807
1248 10 2 -0.061741 19.94781 20.61180 17.66560
1249 10 2 -0.061493 21.21856 20.88507 18.15815
1250 10 2 -0.058306 22.34170 20.50417 17.43318
1251 10 4 0.062038 20.80863 19.06845 14.77711
1252 10 4 0.061767 18.81285 19.74531 16.06536
1253 10 4 0.061758 19.07516 20.90775 18.22888
1254 10 4 0.061767 21.33326 21.39335 19.10414
1255 10 4 0.062038 23.32905 20.71649 17.81589
1256 10 3 0.034915 24.28864 19.97587 15.79168
1257 10 3 0.027687 22.40819 19.17514 13.55901
1258 10 3 0.027687 24.12173 19.65008 13.42128
1259 10 2 -0.044235 22.83451 21.57875 12.27858
1260 10 2 -0.058306 24.06665 21.71303 11.64938
1261 10 2 -0.061493 24.12555 21.99393 10.28933
1262 10 2 -0.061741 22.95232 22.14055 9.55849
1263 10 2 -0.061493 21.72018 22.00627 10.18770
1264 10 2 -0.058306 21.66127 21.72537 11.54775
1265 10 4 0.062038 24.97822 21.59911 12.21722
1266 10 4 0.061767 25.08290 22.09826 9.80045
1267 10 4 0.061758 22.99808 22.35880 8.50176
1268 10 4 0.061767 20.80860 22.12019 9.61985
1269 10 4 0.062038 20.70393 21.62104 12.03663
1270 10 3 0.034915 21.74673 21.38745 14.11240
1271 10 3 0.027687 24.69256 22.05337 14.27698
1272 10 3 0.027687 23.46312 22.18568 15.56217
1273 10 2 -0.044244 21.95201 24.06905 14.41445
1274 10 2 -0.058306 21.09532 24.49133 13.40457
1275 10 2 -0.061493 19.77074 24.79372 13.69808
1276 10 2 -0.061741 19.30285 24.67383 15.00146
1277 10 2 -0.061493 20.15955 24.25155 16.01134
1278 10 2 -0.058306 21.48413 23.94916 15.71783
1279 10 4 0.062038 21.45885 24.58448 12.39187
1280 10 4 0.061767 19.10510 25.12182 12.91343
1281 10 4 0.061758 18.27368 24.90878 15.22951
1282 10 4 0.061767 19.79601 24.15840 17.02404
1283 10 4 0.062038 22.14976 23.62106 16.50249
1284 10 3 0.034906 23.56279 23.83738 13.02360
1285 10 3 0.027419 25.31906 24.42166 14.72182
1286 10 3 0.027419 23.99867 24.76969 15.86908
1287 10 2 -0.047337 24.96759 27.09046 15.17748
1288 10 2 -0.058572 26.35394 27.00138 15.22450
1289 10 2 -0.061501 27.07650 27.84352 16.06163
1290 10 2 -0.061742 26.41271 28.77476 16.85175
1291 10 2 -0.061501 25.02637 28.86385 16.80474
1292 10 2 -0.058572 24.30381 28.02170 15.96760
1293 10 4 0.062029 26.86968 26.27782 14.61059
1294 10 4 0.061766 28.15366 27.77430 16.09816
1295 10 4 0.061758 26.97412 29.42909 17.50219
1296 10 4 0.061766 24.51062 29.58740 17.41864
1297 10 4 0.062029 23.22665 28.09092 15.93107
1298 10 3 0.031335 23.13241 26.46733 14.26832
1299 10 3 0.023554 16.83360 13.12011 17.25712
1300 10 3 0.031335 24.56813 26.28863 13.25480
ITEM: TIMESTEP
1000
ITEM: NUMBER OF ATOMS
1300
ITEM: BOX BOUNDS pp pp pp
0.0 33.0
0.0 33.0
0.0 33.0
ITEM: ATOMS id mol type q xu yu zu
1 1 1 -0.058379 20.57250 0.98699 30.42092
2 1 1 -0.018134 19.13940 1.21159 30.90742
3 1 1 -0.039597 18.16912 1.64447 29.80648
4 1 1 -0.014764 18.36132 3.08896 29.34021
5 1 1 -0.039327 17.31963 3.55824 28.32258
6 1 1 -0.014755 17.48310 5.01742 27.89250
7 1 1 -0.039327 16.34789 5.53631 27.00767
8 1 1 -0.014755 16.53936 6.97754 26.53114
9 1 1 -0.039327 15.34009 7.54574 25.76970
10 1 1 -0.014755 15.59560 8.91638 25.13963
11 1 1 -0.039327 14.37143 9.52242 24.45041
12 1 1 -0.014755 14.59953 10.93339 23.90449
13 1 1 -0.039335 13.33324 11.60670 23.37153
14 1 1 -0.015007 12.85077 11.05150 22.02994
15 1 1 -0.042196 11.49697 11.60332 21.57872
16 1 1 -0.027132 10.86353 10.82846 20.42146
17 1 3 0.023554 20.55565 0.21059 29.65605
18 1 3 0.023554 20.93749 1.92006 29.99167
19 1 2 -0.044513 18.63376 -0.08102 31.50206
20 1 2 -0.058315 18.05776 -1.04464 30.68245
21 1 2 -0.061493 17.59231 -2.23452 31.22984
22 1 2 -0.061741 17.70285 -2.46078 32.59683
23 1 2 -0.061493 18.27885 -1.49716 33.41645
24 1 2 -0.058315 18.74431 -0.30728 32.86906
25 1 4 0.062038 17.97187 -0.86884 29.62032
26 1 4 0.061767 17.14477 -2.98323 30.59302
27 1 4 0.061758 17.34121 -3.38529 33.02214
28 1 4 0.061767 18.36474 -1.67296 34.47857
29 1 4 0.062038 19.19184 0.44143 33.50588
30 1 3 0.034630 19.15625 1.98799 31.67228
31 1 3 0.027678 17.15292 1.54087 30.18689
32 1 3 0.027678 18.31086 0.98711 28.94864
33 1 2 -0.044235 18.28149 3.99064 30.54881
34 1 2 -0.058306 17.11070 4.04973 31.29571
35 1 2 -0.061493 17.03721 4.87976 32.40826
36 1 2 -0.061741 18.13451 5.65069 32.77390
37 1 2 -0.061493 19.30530 5.59160 32.02700
38 1 2 -0.058306 19.37879 4.76157 30.91445
39 1 4 0.062038 16.25812 3.45074 31.01161
40 1 4 0.061767 16.12754 4.92567 32.98858
41 1 4 0.061758 18.07742 6.29560 33.63832
42 1 4 0.061767 20.15788 6.19059 32.31109
43 1 4 0.062038 20.28847 4.71566 30.33412
44 1 3 0.034915 19.34711 3.17166 28.88253
45 1 3 0.027687 16.33133 3.44210 28.76741
46 1 3 0.027687 17.40138 2.92974 27.43579
47 1 2 -0.044235 18.77669 5.14175 27.12356
48 1 2 -0.058306 18.98138 4.37890 25.97977
49 1 2 -0.061493 20.17217 4.49335 25.27193
50 1 2 -0.061741 21.15826 5.37065 25.70789
51 1 2 -0.061493 20.95357 6.13350 26.85168
52 1 2 -0.058306 19.76279 6.01905 27.55952
53 1 4 0.062038 18.21521 3.69726 25.64104
54 1 4 0.061767 20.33121 3.90063 24.38323
55 1 4 0.061758 22.08348 5.45958 25.15791
56 1 4 0.061767 21.71975 6.81515 27.19041
57 1 4 0.062038 19.60375 6.61177 28.44822
58 1 3 0.034915 17.52624 5.63497 28.78964
59 1 3 0.027687 15.42025 5.48563 27.57777
60 1 3 0.027687 16.27755 4.89318 26.13044
61 1 2 -0.044235 16.78647 7.84677 27.74088
62 1 2 -0.058306 15.85613 7.88213 28.77301
63 1 2 -0.061493 16.08360 8.68229 29.88662
64 1 2 -0.061741 17.24142 9.44708 29.96808
65 1 2 -0.061493 18.17177 9.41172 28.93595
66 1 2 -0.058306 17.94430 8.61157 27.82235
67 1 4 0.062038 14.95652 7.28791 28.70971
68 1 4 0.061767 15.36074 8.70976 30.68856
69 1 4 0.061758 17.41817 10.06878 30.83333
70 1 4 0.061767 19.07137 10.00595 28.99925
71 1 4 0.062038 18.66716 8.58409 27.02040
72 1 3 0.034915 17.40714 7.00680 25.87220
73 1 3 0.027687 14.50702 7.64015 26.46625
74 1 3 0.027687 15.07883 6.84773 24.97433
75 1 2 -0.044235 16.69168 8.76747 24.11175
76 1 2 -0.058306 16.45332 8.06037 22.93903
77 1 2 -0.061493 17.46230 7.92330 21.99283
78 1 2 -0.061741 18.70964 8.49333 22.21937
79 1 2 -0.061493 18.94799 9.20044 23.39210
80 1 2 -0.058306 17.93902 9.33751 24.33829
81 1 4 0.062038 15.48417 7.61747 22.76301
82 1 4 0.061767 17.27710 7.37390 21.08165
83 1 4 0.061758 19.49359 8.38683 21.48420
84 1 4 0.061767 19.91714 9.64334 23.56811
85 1 4 0.062038 18.12421 9.88691 25.24947
86 1 3 0.034915 15.91744 9.59900 25.92610
87 1 3 0.027687 13.55766 9.56390 25.17441
88 1 3 0.027687 14.09275 8.87545 23.61862
89 1 2 -0.044235 15.15611 11.78730 25.01857
90 1 2 -0.058306 14.31995 12.23640 26.03407
91 1 2 -0.061493 14.83229 13.02245 27.05961
92 1 2 -0.061741 16.18080 13.35939 27.06965
93 1 2 -0.061493 17.01696 12.91029 26.05414
94 1 2 -0.058306 16.50461 12.12425 25.02860
95 1 4 0.062038 13.27219 11.97459 26.02627
96 1 4 0.061767 14.18261 13.37139 27.84863
97 1 4 0.061758 16.57888 13.97014 27.86647
98 1 4 0.061767 18.06472 13.17210 26.06194
99 1 4 0.062038 17.15429 11.77531 24.23958
100 1 3 0.034915 15.32189 10.87188 23.09054
101 1 3 0.027687 13.53848 12.66994 23.24705
102 1 3 0.027687 12.53837 11.46758 24.10429
103 1 2 -0.044244 13.87715 11.39811 20.97803
104 1 2 -0.058306 14.49058 10.38812 20.24610
105 1 2 -0.061493 15.43539 10.70719 19.27779
106 1 2 -0.061741 15.76677 12.03626 19.04141
107 1 2 -0.061493 15.15335 13.04625 19.77334
108 1 2 -0.058306 14.20853 12.72718 20.74165
109 1 4 0.062038 14.23310 9.35547 20.42976
110 1 4 0.061767 15.91201 9.92245 18.70909
111 1 4 0.061758 16.50087 12.28417 18.28905
112 1 4 0.061767 15.41082 14.07890 19.58968
113 1 4 0.062038 13.73192 13.51192 21.31035
114 1 3 0.034906 12.76533 9.96855 22.11949
115 1 3 0.027419 11.63811 12.63642 21.26109
116 1 3 0.027419 10.81395 11.56820 22.42745
117 1 2 -0.047337 10.74164 9.38057 20.83237
118 1 2 -0.058572 11.63200 8.43842 20.33068
119 1 2 -0.061501 11.51979 7.10559 20.70893
120 1 2 -0.061742 10.51722 6.71491 21.58889
121 1 2 -0.061501 9.62685 7.65707 22.09058
122 1 2 -0.058572 9.73906 8.98989 21.71233
123 1 4 0.062029 12.41098 8.74196 19.64697
124 1 4 0.061766 12.21158 6.37356 20.31913
125 1 4 0.061758 10.43003 5.67933 21.88278
126 1 4 0.061766 8.84787 7.35352 22.77429
127 1 4 0.062029 9.04727 9.72193 22.10213
128 1 3 0.031335 11.51950 10.91222 19.55498
129 1 3 0.023554 21.26374 0.67860 31.20525
130 1 3 0.031335 9.87435 11.18697 20.13672
131 2 1 -0.058379 8.66652 -5.85850 17.45455
132 2 1 -0.018134 8.12636 -5.98763 16.02890
133 2 1 -0.039597 7.86216 -4.64741 15.33976
134 2 1 -0.014764 7.60027 -4.76150 13.83666
135 2 1 -0.039327 7.08448 -3.47179 13.19519
136 2 1 -0.014755 7.96185 -2.24795 13.46602
137 2 1 -0.039327 7.65657 -1.05125 12.56290
138 2 1 -0.014755 8.37856 0.23508 12.96907
139 2 1 -0.039327 8.31430 1.34367 11.91655
140 2 1 -0.014755 8.82447 2.69950 12.40885
141 2 1 -0.039327 8.69790 3.82348 11.37854
142 2 1 -0.014755 7.26067 4.29165 11.14171
143 2 1 -0.039335 7.12452 5.35542 10.05049
144 2 1 -0.015007 7.34719 4.82475 8.63285
145 2 1 -0.042196 7.13162 5.86966 7.53622
146 2 1 -0.027132 8.24965 6.90960 7.43910
147 2 3 0.023554 9.60413 -5.30402 17.41546
148 2 3 0.023554 7.93648 -5.30771 18.04764
149 2 2 -0.044513 9.13770 -6.75065 15.20727
150 2 2 -0.058315 10.16154 -6.07032 14.55842
151 2 2 -0.061493 11.09251 -6.77271 13.80209
152 2 2 -0.061741 10.99964 -8.15543 13.69460
153 2 2 -0.061493 9.97581 -8.83577 14.34345
154 2 2 -0.058315 9.04484 -8.13338 15.09978
155 2 4 0.062038 10.23370 -4.99598 14.64194
156 2 4 0.061767 11.88801 -6.24411 13.29794
157 2 4 0.061758 11.72299 -8.70118 13.10694
158 2 4 0.061767 9.90365 -9.91011 14.25993
159 2 4 0.062038 8.24934 -8.66198 15.60392
160 2 3 0.034630 7.18875 -6.54211 16.06798
161 2 3 0.027678 8.73408 -4.01009 15.48697
162 2 3 0.027678 6.98849 -4.19077 15.80482
163 2 2 -0.044235 6.57046 -5.84375 13.61683
164 2 2 -0.058306 6.75056 -6.77921 12.60461
165 2 2 -0.061493 5.80258 -7.77545 12.40225
166 2 2 -0.061741 4.67451 -7.83623 13.21210
167 2 2 -0.061493 4.49441 -6.90077 14.22432
168 2 2 -0.058306 5.44239 -5.90453 14.42668
169 2 4 0.062038 7.62704 -6.73198 11.97537
170 2 4 0.061767 5.94251 -8.50228 11.61578
171 2 4 0.061758 3.93796 -8.61029 13.05487
172 2 4 0.061767 3.61793 -6.94800 14.85356
173 2 4 0.062038 5.30246 -5.17770 15.21315
174 2 3 0.034915 8.53464 -5.03626 13.34722
175 2 3 0.027687 6.08748 -3.27058 13.58712
176 2 3 0.027687 7.03351 -3.62344 12.11699
177 2 2 -0.044235 9.40374 -2.64377 13.25537
178 2 2 -0.058306 9.79185 -3.24792 12.06521
179 2 2 -0.061493 11.11915 -3.61228 11.87130
180 2 2 -0.061741 12.05835 -3.37249 12.86754
181 2 2 -0.061493 11.67024 -2.76834 14.05770
182 2 2 -0.058306 10.34294 -2.40398 14.25161
183 2 4 0.062038 9.06211 -3.43423 11.29115
184 2 4 0.061767 11.42070 -4.08169 10.94657
185 2 4 0.061758 13.08964 -3.65559 12.71688
186 2 4 0.061767 12.39998 -2.58203 14.83176
187 2 4 0.062038 10.04139 -1.93457 15.17634
188 2 3 0.034915 7.81062 -1.94181 14.50116
189 2 3 0.027687 6.58311 -0.86478 12.59449
190 2 3 0.027687 7.95730 -1.30516 11.54644
191 2 2 -0.044235 7.74605 0.75158 14.23921
192 2 2 -0.058306 8.45964 0.72471 15.43175
193 2 2 -0.061493 7.87739 1.20016 16.60095
194 2 2 -0.061741 6.58154 1.70248 16.57760
195 2 2 -0.061493 5.86794 1.72935 15.38506
196 2 2 -0.058306 6.45020 1.25390 14.21586
197 2 4 0.062038 9.46649 0.33442 15.44989
198 2 4 0.061767 8.43184 1.17929 17.52753
199 2 4 0.061758 6.12914 2.07190 17.48605
200 2 4 0.061767 4.86109 2.11965 15.36692
201 2 4 0.062038 5.89575 1.27478 13.28928
202 2 3 0.034915 9.42660 -0.00406 13.14947
203 2 3 0.027687 7.27563 1.46140 11.60770
204 2 3 0.027687 8.92088 1.03998 11.06336
205 2 2 -0.044235 10.28282 2.55267 12.77182
206 2 2 -0.058306 11.20669 2.18261 11.80145
207 2 2 -0.061493 12.54915 2.04744 12.13557
208 2 2 -0.061741 12.96773 2.28233 13.44007
209 2 2 -0.061493 12.04386 2.65238 14.41044
210 2 2 -0.058306 10.70141 2.78755 14.07632
211 2 4 0.062038 10.88145 2.00011 10.78788
212 2 4 0.061767 13.26697 1.75992 11.38161
213 2 4 0.061758 14.01079 2.17730 13.69968
214 2 4 0.061767 12.36910 2.83488 15.42401
215 2 4 0.062038 9.98358 3.07507 14.83028
216 2 3 0.034915 8.25072 2.97990 13.29219
217 2 3 0.027687 9.10071 3.46517 10.43120
218 2 3 0.027687 9.28099 4.67512 11.72899
219 2 2 -0.044235 6.73234 4.86866 12.43323
220 2 2 -0.058306 7.18201 6.10696 12.87653
221 2 2 -0.061493 6.69567 6.63811 14.06541
222 2 2 -0.061741 5.75965 5.93096 14.81100
223 2 2 -0.061493 5.30997 4.69266 14.36771
224 2 2 -0.058306 5.79631 4.16151 13.17883
225 2 4 0.062038 7.90928 6.65639 12.29722
226 2 4 0.061767 7.04506 7.60024 14.40984
227 2 4 0.061758 5.38177 6.34365 15.73474
228 2 4 0.061767 4.58270 4.14322 14.94702
229 2 4 0.062038 5.44693 3.19938 12.83440
230 2 3 0.034915 6.66333 3.42711 10.85212
231 2 3 0.027687 7.85986 6.13692 10.24191
232 2 3 0.027687 6.11926 5.77331 10.10462
233 2 2 -0.044244 6.38368 3.68622 8.39727
234 2 2 -0.058306 6.78581 2.37609 8.62952
235 2 2 -0.061493 5.89887 1.32804 8.41266
236 2 2 -0.061741 4.60980 1.59012 7.96355
237 2 2 -0.061493 4.20767 2.90026 7.73130
238 2 2 -0.058306 5.09461 3.94831 7.94816
239 2 4 0.062038 7.78740 2.17246 8.97848
240 2 4 0.061767 6.21132 0.31010 8.59312
241 2 4 0.061758 3.92067 0.77581 7.79506
242 2 4 0.061767 3.20608 3.10389 7.38235
243 2 4 0.062038 4.78216 4.96625 7.76770
244 2 3 0.034906 8.37237 4.46142 8.56144
245 2 3 0.027419 6.19681 6.39151 7.74091
246 2 3 0.027419 7.06326 5.35154 6.57967
247 2 2 -0.047337 9.50737 6.21050 6.98138
248 2 2 -0.058572 9.76245 6.05724 5.62361
249 2 2 -0.061501 10.92022 5.41370 5.20226
250 2 2 -0.061742 11.82290 4.92343 6.13869
251 2 2 -0.061501 11.56782 5.07670 7.49646
252 2 2 -0.058572 10.41005 5.72023 7.91781
253 2 4 0.062029 9.06108 6.43817 4.89602
254 2 4 0.061766 11.11841 5.29462 4.14731
255 2 4 0.061758 12.72247 4.42341 5.81132
256 2 4 0.061766 12.26919 4.69577 8.22404
257 2 4 0.062029 10.21186 5.83932 8.97276
258 2 3 0.031335 8.40485 7.33751 8.42950
259 2 3 0.023554 8.85474 -6.81330 17.94550
260 2 3 0.031335 8.03932 7.72315 6.74483
261 3 1 -0.058379 6.40331 0.64302 -3.17627
262 3 1 -0.018134 5.72907 1.81933 -2.46731
263 3 1 -0.039597 6.67468 2.64182 -1.58968
264 3 1 -0.014764 6.08904 3.97665 -1.12475
265 3 1 -0.039327 7.04277 4.80909 -0.26549
266 3 1 -0.014755 6.48227 6.17265 0.14370
267 3 1 -0.039327 7.50069 7.08254 0.83352
268 3 1 -0.014755 8.30798 6.39107 1.93399
269 3 1 -0.039327 9.21425 7.33464 2.72724
270 3 1 -0.014755 10.22062 8.10084 1.86640
271 3 1 -0.039327 11.29422 8.83683 2.67051
272 3 1 -0.014755 10.73514 9.81157 3.70888
273 3 1 -0.039335 11.80130 10.66490 4.39883
274 3 1 -0.015007 11.23282 11.79288 5.26220
275 3 1 -0.042196 12.29217 12.57310 6.04317
276 3 1 -0.027132 13.39201 13.17671 5.16744
277 3 3 0.023554 7.19989 1.03624 -3.80789
278 3 3 0.023554 6.82522 -0.01634 -2.41776
279 3 2 -0.044513 5.14459 2.73276 -3.51809
280 3 2 -0.058315 5.98278 3.39446 -4.40785
281 3 2 -0.061493 5.44475 4.23530 -5.37512
282 3 2 -0.061741 4.06852 4.41444 -5.45263
283 3 2 -0.061493 3.23033 3.75273 -4.56286
284 3 2 -0.058315 3.76836 2.91190 -3.59559
285 3 4 0.062038 7.05208 3.25528 -4.34763
286 3 4 0.061767 6.09601 4.74943 -6.06645
287 3 4 0.061758 3.65048 5.06775 -6.20417
288 3 4 0.061767 2.16103 3.89192 -4.62308
289 3 4 0.062038 3.11710 2.39777 -2.90426
290 3 3 0.034630 4.93249 1.42612 -1.83569
291 3 3 0.027678 7.57964 2.84676 -2.16165
292 3 3 0.027678 6.92157 2.05147 -0.70728
293 3 2 -0.044235 4.84799 3.69157 -0.31320
294 3 2 -0.058306 3.60693 4.12368 -0.76615
295 3 2 -0.061493 2.46450 3.86126 -0.01909
296 3 2 -0.061741 2.56313 3.16674 1.18091
297 3 2 -0.061493 3.80419 2.73463 1.63386
298 3 2 -0.058306 4.94661 2.99705 0.88680
299 3 4 0.062038 3.53030 4.66331 -1.69853
300 3 4 0.061767 1.50023 4.19700 -0.37102
301 3 4 0.061758 1.67549 2.96284 1.76136
302 3 4 0.061767 3.88082 2.19500 2.56623
303 3 4 0.062038 5.91089 2.66131 1.23873
304 3 3 0.034915 5.82695 4.56033 -2.00720
305 3 3 0.027687 7.95882 4.97289 -0.83304
306 3 3 0.027687 7.26576 4.24577 0.64063
307 3 2 -0.044235 5.98788 6.87311 -1.09929
308 3 2 -0.058306 6.87587 7.18056 -2.12352
309 3 2 -0.061493 6.42077 7.82535 -3.26774
310 3 2 -0.061741 5.07767 8.16269 -3.38772
311 3 2 -0.061493 4.18968 7.85523 -2.36350
312 3 2 -0.058306 4.64478 7.21044 -1.21928
313 3 4 0.062038 7.91943 6.91846 -2.03029
314 3 4 0.061767 7.11072 8.06424 -4.06354
315 3 4 0.061758 4.72406 8.66367 -4.27675
316 3 4 0.061767 3.14612 8.11733 -2.45672
317 3 4 0.062038 3.95483 6.97156 -0.42348
318 3 3 0.034915 5.65145 6.00830 0.82987
319 3 3 0.027687 6.96366 7.91995 1.27900
320 3 3 0.027687 8.19651 7.44971 0.07912
321 3 2 -0.044235 7.33974 5.74533 2.89608
322 3 2 -0.058306 6.22943 6.45175 3.34360
323 3 2 -0.061493 5.33813 5.85733 4.22924
324 3 2 -0.061741 5.55714 4.55649 4.66735
325 3 2 -0.061493 6.66746 3.85007 4.21983
326 3 2 -0.058306 7.55875 4.44449 3.33420
327 3 4 0.062038 6.05926 7.46248 3.00320
328 3 4 0.061767 4.47544 6.40621 4.57695
329 3 4 0.061758 4.86462 4.09464 5.35547
330 3 4 0.061767 6.83763 2.83935 4.56024
331 3 4 0.062038 8.42144 3.89562 2.98648
332 3 3 0.034915 8.93247 5.62728 1.47059
333 3 3 0.027687 9.76874 6.74316 3.45579
334 3 3 0.027687 8.58445 8.05955 3.24296
335 3 2 -0.044235 10.90748 7.11525 0.95156
336 3 2 -0.058306 10.73366 7.20659 -0.42450
337 3 2 -0.061493 11.36594 6.29932 -1.26663
338 3 2 -0.061741 12.17203 5.30070 -0.73270
339 3 2 -0.061493 12.34584 5.20936 0.64336
340 3 2 -0.058306 11.71357 6.11663 1.48549
341 3 4 0.062038 10.10735 7.98249 -0.83935
342 3 4 0.061767 11.23088 6.37029 -2.33580
343 3 4 0.061758 12.66329 4.59577 -1.38702
344 3 4 0.061767 12.97216 4.43345 1.05821
345 3 4 0.062038 11.84862 6.04566 2.55466
346 3 3 0.034915 9.67423 8.83503 1.27434
347 3 3 0.027687 11.91646 9.39934 1.97446
348 3 3 0.027687 11.90013 8.09471 3.19036
349 3 2 -0.044235 9.76497 10.73716 3.01450
350 3 2 -0.058306 10.14889 11.40570 1.85788
351 3 2 -0.061493 9.25583 12.25773 1.21869
352 3 2 -0.061741 7.97884 12.44123 1.73611
353 3 2 -0.061493 7.59492 11.77270 2.89273
354 3 2 -0.058306 8.48798 10.92067 3.53193
355 3 4 0.062038 11.14108 11.26312 1.45585
356 3 4 0.061767 9.55412 12.77717 0.32002
357 3 4 0.061758 7.28494 13.10324 1.23947
358 3 4 0.061767 6.60273 11.91528 3.29476
359 3 4 0.062038 8.18969 10.40123 4.43059
360 3 3 0.034915 10.21291 9.23476 4.47220
361 3 3 0.027687 12.43341 11.10899 3.62986
362 3 3 0.027687 12.39880 10.01422 5.03735
363 3 2 -0.044244 10.26491 11.18927 6.25160
364 3 2 -0.058306 8.99409 11.73239 6.40042
365 3 2 -0.061493 8.10311 11.17675 7.31119
366 3 2 -0.061741 8.48294 10.07800 8.07314
367 3 2 -0.061493 9.75375 9.53488 7.92432
368 3 2 -0.058306 10.64474 10.09052 7.01355
369 3 4 0.062038 8.69897 12.58609 5.80840
370 3 4 0.061767 7.11571 11.59874 7.42682
371 3 4 0.061758 7.79066 9.64628 8.78080
372 3 4 0.061767 10.04887 8.68117 8.51634
373 3 4 0.062038 11.63214 9.66853 6.89792
374 3 3 0.034906 10.70701 12.49018 4.60997
375 3 3 0.027419 12.75842 11.89452 6.75748
376 3 3 0.027419 11.79546 13.38454 6.57510
377 3 2 -0.047337 12.77939 14.27036 4.32558
378 3 2 -0.058572 12.39807 14.00751 3.01501
379 3 2 -0.061501 11.83414 15.01425 2.24006
380 3 2 -0.061742 11.65153 16.28385 2.77568
381 3 2 -0.061501 12.03285 16.54670 4.08625
382 3 2 -0.058572 12.59678 15.53996 4.86120
383 3 4 0.062029 12.53995 13.02107 2.59884
384 3 4 0.061766 11.53786 14.81003 1.22177
385 3 4 0.061758 11.21336 17.06606 2.17355
386 3 4 0.061766 11.89097 17.53314 4.50241
387 3 4 0.062029 12.89306 15.74418 5.87949
388 3 3 0.031335 13.78475 12.39067 4.52246
389 3 3 0.023554 5.72964 0.05707 -3.80151
390 3 3 0.031335 14.22241 13.60349 5.72993
391 4 1 -0.058379 15.00774 -2.82782 14.13406
392 4 1 -0.018134 16.10628 -3.89276 14.13240
393 4 1 -0.039597 16.48293 -4.39612 12.73752
394 4 1 -0.014764 16.89335 -3.28785 11.76582
395 4 1 -0.039327 18.12562 -2.49660 12.20890
396 4 1 -0.014755 18.60707 -1.46862 11.18305
397 4 1 -0.039327 19.99261 -0.89272 11.48225
398 4 1 -0.014755 20.42217 0.22309 10.52761
399 4 1 -0.039327 21.72607 0.91653 10.92747
400 4 1 -0.014755 22.14034 2.05173 9.98906
401 4 1 -0.039327 23.38903 2.81025 10.44328
402 4 1 -0.014755 24.00117 3.70452 9.36324
403 4 1 -0.039335 25.12476 4.61133 9.86934
404 4 1 -0.015007 24.65077 5.72874 10.80080
405 4 1 -0.042196 25.78662 6.49603 11.48053
406 4 1 -0.027132 26.49326 5.71054 12.58712
407 4 3 0.023554 15.35529 -1.97790 13.54674
408 4 3 0.023554 14.11716 -3.25530 13.67338
409 4 2 -0.044513 15.62482 -5.07017 14.94603
410 4 2 -0.058315 16.31424 -5.45223 16.09095
411 4 2 -0.061493 15.87103 -6.53607 16.83992
412 4 2 -0.061741 14.73841 -7.23785 16.44398
413 4 2 -0.061493 14.04899 -6.85579 15.29906
414 4 2 -0.058315 14.49220 -5.77195 14.55009
415 4 4 0.062038 17.19426 -4.90696 16.39858
416 4 4 0.061767 16.40670 -6.83292 17.72950
417 4 4 0.061758 14.39405 -8.07997 17.02591
418 4 4 0.061767 13.16897 -7.40106 14.99142
419 4 4 0.062038 13.95653 -5.47510 13.66051
420 4 3 0.034630 16.99686 -3.46528 14.59308
421 4 3 0.027678 15.62166 -4.91616 12.31816
422 4 3 0.027678 17.31880 -5.08837 12.83857
423 4 2 -0.044235 17.19293 -3.91941 10.42736
424 4 2 -0.058306 18.39023 -4.59775 10.23135
425 4 2 -0.061493 18.66601 -5.17912 8.99926
426 4 2 -0.061741 17.74448 -5.08215 7.96317
427 4 2 -0.061493 16.54717 -4.40381 8.15918
428 4 2 -0.058306 16.27140 -3.82244 9.39127
429 4 4 0.062038 19.10624 -4.67310 11.03637
430 4 4 0.061767 19.59628 -5.70618 8.84697
431 4 4 0.061758 17.95875 -5.53386 7.00586
432 4 4 0.061767 15.83117 -4.32846 7.35416
433 4 4 0.062038 15.34112 -3.29538 9.54356
434 4 3 0.034915 16.05888 -2.59349 11.66776
435 4 3 0.027687 18.93642 -3.20171 12.39202
436 4 3 0.027687 17.87962 -1.96956 13.13075
437 4 2 -0.044235 17.61706 -0.32879 11.15524
438 4 2 -0.058306 17.52940 0.54213 12.23502
439 4 2 -0.061493 16.61807 1.59137 12.20942
440 4 2 -0.061741 15.79438 1.76969 11.10405
441 4 2 -0.061493 15.88203 0.89877 10.02428
442 4 2 -0.058306 16.79337 -0.15047 10.04987
443 4 4 0.062038 18.16939 0.40357 13.09387
444 4 4 0.061767 16.54996 2.26805 13.04838
445 4 4 0.061758 15.08629 2.58493 11.08416
446 4 4 0.061767 15.24205 1.03732 9.16543
447 4 4 0.062038 16.86148 -0.82716 9.21091
448 4 3 0.034915 18.64163 -1.95134 10.20638
449 4 3 0.027687 20.72063 -1.70093 11.41233
450 4 3 0.027687 19.98370 -0.49065 12.49535
451 4 2 -0.044235 20.60674 -0.37510 9.15349
452 4 2 -0.058306 21.57539 -1.34978 8.94418
453 4 2 -0.061493 21.74529 -1.90044 7.67927
454 4 2 -0.061741 20.94654 -1.47641 6.62366
455 4 2 -0.061493 19.97789 -0.50173 6.83297
456 4 2 -0.058306 19.80799 0.04893 8.09789
457 4 4 0.062038 22.19599 -1.67925 9.76436
458 4 4 0.061767 22.49791 -2.65775 7.51664
459 4 4 0.061758 21.07855 -1.90426 5.64085
460 4 4 0.061767 19.35728 -0.17227 6.01279
461 4 4 0.062038 19.05537 0.80624 8.26052
462 4 3 0.034915 19.63123 0.97262 10.50063
463 4 3 0.027687 22.52129 0.17109 10.93338
464 4 3 0.027687 21.60004 1.32968 11.92823
465 4 2 -0.044235 20.99654 3.03358 9.90077
466 4 2 -0.058306 20.46779 3.37503 8.66144
467 4 2 -0.061493 19.41489 4.27885 8.58016
468 4 2 -0.061741 18.89073 4.84122 9.73822
469 4 2 -0.061493 19.41948 4.49977 10.97755
470 4 2 -0.058306 20.47238 3.59595 11.05882
471 4 4 0.062038 20.87505 2.93807 7.76165
472 4 4 0.061767 19.00407 4.54414 7.61723
473 4 4 0.061758 18.07265 5.54347 9.67507
474 4 4 0.061767 19.01222 4.93672 11.87733
475 4 4 0.062038 20.88320 3.33065 12.02176
476 4 3 0.034915 22.33832 1.62632 9.00522
477 4 3 0.027687 24.13942 2.08090 10.74831
478 4 3 0.027687 23.11746 3.43750 11.29234
479 4 2 -0.044235 24.56188 2.81802 8.27705
480 4 2 -0.058306 25.55052 1.88893 8.57951
481 4 2 -0.061493 26.06668 1.07288 7.57963
482 4 2 -0.061741 25.59419 1.18592 6.27729
483 4 2 -0.061493 24.60555 2.11501 5.97484
484 4 2 -0.058306 24.08940 2.93106 6.97471
485 4 4 0.062038 25.91764 1.80110 9.59139
486 4 4 0.061767 26.83483 0.35100 7.81464
487 4 4 0.061758 25.99523 0.55187 5.50041
488 4 4 0.061767 24.23844 2.20284 4.96295
489 4 4 0.062038 23.32124 3.65294 6.73971
490 4 3 0.034915 23.21170 4.33500 8.95419
491 4 3 0.027687 25.60923 5.06856 9.00659
492 4 3 0.027687 25.84203 3.99569 10.41211
493 4 2 -0.044244 23.83788 6.70845 9.98871
494 4 2 -0.058306 24.46210 7.78670 9.37240
495 4 2 -0.061493 23.71381 8.68854 8.62484
496 4 2 -0.061741 22.34131 8.51215 8.49361
497 4 2 -0.061493 21.71709 7.43390 9.10992
498 4 2 -0.058306 22.46538 6.53205 9.85747
499 4 4 0.062038 25.52850 7.92375 9.47437
500 4 4 0.061767 24.19881 9.52632 8.14598
501 4 4 0.061758 21.75990 9.21286 7.91277
502 4 4 0.061767 20.65069 7.29685 9.00795
503 4 4 0.062038 21.98038 5.69428 10.33634
504 4 3 0.034906 24.02659 5.28492 11.57638
505 4 3 0.027419 25.37136 7.40388 11.91809
506 4 3 0.027419 26.52473 6.75621 10.72185
507 4 2 -0.047337 27.40746 6.65635 13.32860
508 4 2 -0.058572 28.78477 6.56118 13.16722
509 4 2 -0.061501 29.62631 7.43183 13.84977
510 4 2 -0.061742 29.09054 8.39765 14.69370
511 4 2 -0.061501 27.71323 8.49283 14.85509
512 4 2 -0.058572 26.87168 7.62218 14.17254
513 4 4 0.062029 29.20105 5.81075 12.51149
514 4 4 0.061766 30.69646 7.35788 13.72437
515 4 4 0.061758 29.74440 9.07413 15.22403
516 4 4 0.061766 27.29694 9.24325 15.51081
517 4 4 0.062029 25.80154 7.69613 14.29793
518 4 3 0.031335 27.08026 4.91852 12.12211
519 4 3 0.023554 14.73941 -2.46922 15.12779
520 4 3 0.031335 25.81577 5.25444 13.30898
521 5 1 -0.058379 22.49246 27.67400 22.12794
522 5 1 -0.018134 22.72192 26.17960 22.36246
523 5 1 -0.039597 23.91358 25.60485 21.59401
524 5 1 -0.014764 24.25113 24.15823 21.96040
525 5 1 -0.039327 24.73582 23.97784 23.40034
526 5 1 -0.014755 25.31884 22.59366 23.69193
527 5 1 -0.039327 25.71582 22.38103 25.15415
528 5 1 -0.014755 26.21530 20.96850 25.46429
529 5 1 -0.039327 27.33601 20.48785 24.54023
530 5 1 -0.014755 27.67673 19.00429 24.69476
531 5 1 -0.039327 26.59944 18.05926 24.15881
532 5 1 -0.014755 26.85975 16.58255 24.46289
533 5 1 -0.039335 25.86059 15.62677 23.80787
534 5 1 -0.015007 25.98505 14.17682 24.28013
535 5 1 -0.042196 25.18385 13.17844 23.44215
536 5 1 -0.027132 25.20950 11.74831 23.98527
537 5 3 0.023554 23.38942 28.20996 22.43830
538 5 3 0.023554 22.31930 27.82984 21.06312
539 5 2 -0.044513 21.47935 25.43713 21.93251
540 5 2 -0.058315 20.87230 24.53699 22.80047
541 5 2 -0.061493 19.72848 23.85353 22.40469
542 5 2 -0.061741 19.19170 24.07020 21.14095
543 5 2 -0.061493 19.79875 24.97033 20.27300
544 5 2 -0.058315 20.94257 25.65380 20.66878
545 5 4 0.062038 21.28936 24.36865 23.78236
546 5 4 0.061767 19.25681 23.15414 23.07907
547 5 4 0.061758 18.30297 23.53916 20.83344
548 5 4 0.061767 19.38168 25.13868 19.29110
549 5 4 0.062038 21.41424 26.35318 19.99439
550 5 3 0.034630 22.89508 26.02376 23.42727
551 5 3 0.027678 24.78618 26.22300 21.80512
552 5 3 0.027678 23.68347 25.64256 20.52924
553 5 2 -0.044235 25.33958 23.67665 21.03117
554 5 2 -0.058306 26.64175 24.13667 21.18870
555 5 2 -0.061493 27.64371 23.69337 20.33332
556 5 2 -0.061741 27.34348 22.79004 19.32042
557 5 2 -0.061493 26.04130 22.33002 19.16290
558 5 2 -0.058306 25.03935 22.77332 20.01827
559 5 4 0.062038 26.87502 24.83854 21.97570
560 5 4 0.061767 28.65547 24.05079 20.45571
561 5 4 0.061758 28.12197 22.44560 18.65581
562 5 4 0.061767 25.80803 21.62815 18.37589
563 5 4 0.062038 24.02759 22.41590 19.89588
564 5 3 0.034915 23.35473 23.55335 21.82361
565 5 3 0.027687 23.88965 24.13947 24.06816
566 5 3 0.027687 25.50801 24.72175 23.59635
567 5 2 -0.044235 24.28242 21.55764 23.32779
568 5 2 -0.058306 22.99505 21.65127 23.84355
569 5 2 -0.061493 22.04099 20.69759 23.50835
570 5 2 -0.061741 22.37430 19.65028 22.65738
571 5 2 -0.061493 23.66167 19.55665 22.14162
572 5 2 -0.058306 24.61573 20.51033 22.47682
573 5 4 0.062038 22.73607 22.46501 24.50473
574 5 4 0.061767 21.04073 20.77033 23.90909
575 5 4 0.061758 21.63302 18.90929 22.39694
576 5 4 0.061767 23.92064 18.74291 21.48043
577 5 4 0.062038 25.61598 20.43759 22.07608
578 5 3 0.034915 26.20693 22.46024 23.07419
579 5 3 0.027687 24.84351 22.57911 25.77700
580 5 3 0.027687 26.51102 23.08553 25.39792
581 5 2 -0.044235 26.73173 20.95037 26.88312
582 5 2 -0.058306 26.09551 20.17368 27.84442
583 5 2 -0.061493 26.57090 20.15699 29.15049
584 5 2 -0.061741 27.68249 20.91697 29.49527
585 5 2 -0.061493 28.31871 21.69366 28.53397
586 5 2 -0.058306 27.84332 21.71035 27.22790
587 5 4 0.062038 25.23183 19.58319 27.57653
588 5 4 0.061767 26.07657 19.55352 29.89740
589 5 4 0.061758 28.05185 20.90400 30.51006
590 5 4 0.061767 29.18239 22.28415 28.80186
591 5 4 0.062038 28.33765 22.31382 26.48099
592 5 3 0.034915 25.37522 20.28062 25.36850
593 5 3 0.027687 28.23199 21.06855 24.75956
594 5 3 0.027687 27.02677 20.66155 23.50956
595 5 2 -0.044235 28.95924 18.73302 23.94530
596 5 2 -0.058306 30.03268 18.13761 24.59746
597 5 2 -0.061493 31.21327 17.88790 23.90756
598 5 2 -0.061741 31.32041 18.23360 22.56550
599 5 2 -0.061493 30.24697 18.82901 21.91335
600 5 2 -0.058306 29.06638 19.07873 22.60325
601 5 4 0.062038 29.94943 17.86900 25.64021
602 5 4 0.061767 32.04731 17.42527 24.41427
603 5 4 0.061758 32.23770 18.03958 22.02947
604 5 4 0.061767 30.33022 19.09762 20.87060
605 5 4 0.062038 28.23234 19.54135 22.09654
606 5 3 0.034915 27.81762 18.79502 25.75517
607 5 3 0.027687 26.54619 18.18081 23.07692
608 5 3 0.027687 25.64649 18.33765 24.60881
609 5 2 -0.044235 26.78936 16.38814 25.95866
610 5 2 -0.058306 27.95481 16.18699 26.68898
611 5 2 -0.061493 27.89000 16.00803 28.06589
612 5 2 -0.061741 26.65975 16.03020 28.71248
613 5 2 -0.061493 25.49429 16.23135 27.98216
614 5 2 -0.058306 25.55910 16.41031 26.60525
615 5 4 0.062038 28.91069 16.16976 26.18660
616 5 4 0.061767 28.79553 15.85175 28.63333
617 5 4 0.061758 26.60940 15.89115 29.78230
618 5 4 0.061767 24.53841 16.24858 28.48454
619 5 4 0.062038 24.65357 16.56659 26.03781
620 5 3 0.034915 27.85799 16.33103 24.10461
621 5 3 0.027687 26.02222 15.64987 22.73017
622 5 3 0.027687 24.85372 15.97541 24.03760
623 5 2 -0.044244 27.44161 13.78320 24.21996
624 5 2 -0.058306 28.06805 13.26293 25.34646
625 5 2 -0.061493 29.40885 12.90060 25.29107
626 5 2 -0.061741 30.12321 13.05854 24.10919
627 5 2 -0.061493 29.49677 13.57881 22.98270
628 5 2 -0.058306 28.15597 13.94114 23.03808
629 5 4 0.062038 27.51301 13.14022 26.26476
630 5 4 0.061767 29.89558 12.49636 26.16634
631 5 4 0.061758 31.16498 12.77701 24.06616
632 5 4 0.061767 30.05181 13.70152 22.06440
633 5 4 0.062038 27.66924 14.34538 22.16282
634 5 3 0.034906 25.62995 14.12126 25.30917
635 5 3 0.027419 25.59869 13.16833 22.43423
636 5 3 0.027419 24.14703 13.51332 23.41117
637 5 2 -0.047337 24.53046 11.74236 25.33397
638 5 2 -0.058572 25.21687 11.29219 26.45570
639 5 2 -0.061501 24.59179 11.28671 27.69721
640 5 2 -0.061742 23.28031 11.73141 27.81699
641 5 2 -0.061501 22.59390 12.18159 26.69526
642 5 2 -0.058572 23.21897 12.18706 25.45375
643 5 4 0.062029 26.23586 10.94666 26.36263
644 5 4 0.061766 25.12512 10.93693 28.56877
645 5 4 0.061758 22.79464 11.72715 28.78162
646 5 4 0.061766 21.57490 12.52711 26.78832
647 5 4 0.062029 22.68564 12.53684 24.58219
648 5 3 0.031335 26.25021 11.44330 24.09471
649 5 3 0.023554 21.64350 28.08346 22.67539
650 5 3 0.031335 24.70635 11.02240 23.34652
651 6 1 -0.058379 17.48796 19.35870 -0.19113
652 6 1 -0.018134 16.36619 20.30043 -0.63345
653 6 1 -0.039597 15.80332 21.16991 0.49265
654 6 1 -0.014764 14.54923 21.95576 0.10455
655 6 1 -0.039327 14.00738 22.85304 1.21908
656 6 1 -0.014755 12.93860 23.84478 0.75532
657 6 1 -0.039327 12.45612 24.79730 1.85114
658 6 1 -0.014755 11.27919 25.68123 1.43348
659 6 1 -0.039327 10.76546 26.59928 2.54441
660 6 1 -0.014755 9.48130 27.35032 2.18697
661 6 1 -0.039327 8.37927 26.45933 1.61028
662 6 1 -0.014755 7.01631 27.14611 1.50271
663 6 1 -0.039335 5.95545 26.31387 0.77963
664 6 1 -0.015007 4.55658 26.93319 0.80241
665 6 1 -0.042196 4.06148 27.30079 2.20264
666 6 1 -0.027132 2.66685 27.92962 2.22442
667 6 3 0.023554 18.30075 19.96209 0.21309
668 6 3 0.023554 17.09560 18.70095 0.58445
669 6 2 -0.044513 15.24021 19.46454 -1.19343
670 6 2 -0.058315 14.87376 19.59657 -2.52774
671 6 2 -0.061493 13.83727 18.82711 -3.04322
672 6 2 -0.061741 13.16723 17.92563 -2.22439
673 6 2 -0.061493 13.53368 17.79361 -0.89008
674 6 2 -0.058315 14.57017 18.56307 -0.37460
675 6 4 0.062038 15.39437 20.29700 -3.16396
676 6 4 0.061767 13.55254 18.92968 -4.07995
677 6 4 0.061758 12.36190 17.32777 -2.62491
678 6 4 0.061767 13.01308 17.09318 -0.25387
679 6 4 0.062038 14.85490 18.46049 0.66213
680 6 3 0.034630 16.75854 20.95818 -1.40903
681 6 3 0.027678 16.57301 21.88132 0.79192
682 6 3 0.027678 15.55358 20.52139 1.33239
683 6 2 -0.044235 14.88524 22.82657 -1.08241
684 6 2 -0.058306 15.91175 23.75937 -0.99162
685 6 2 -0.061493 16.22106 24.56098 -2.08426
686 6 2 -0.061741 15.50384 24.42979 -3.26768
687 6 2 -0.061493 14.47733 23.49698 -3.35847
688 6 2 -0.058306 14.16803 22.69537 -2.26584
689 6 4 0.062038 16.46901 23.86131 -0.07213
690 6 4 0.061767 17.01863 25.28575 -2.01372
691 6 4 0.061758 15.74417 25.05262 -4.11664
692 6 4 0.061767 13.92007 23.39504 -4.27797
693 6 4 0.062038 13.37045 21.97060 -2.33638
694 6 3 0.034915 13.77093 21.24333 -0.16894
695 6 3 0.027687 14.83998 23.41901 1.63688
696 6 3 0.027687 13.57114 22.21603 1.98850
697 6 2 -0.044235 11.75016 23.05941 0.25440
698 6 2 -0.058306 11.37188 23.14687 -1.08028
699 6 2 -0.061493 10.27789 22.42392 -1.54139
700 6 2 -0.061741 9.56219 21.61351 -0.66783
701 6 2 -0.061493 9.94047 21.52605 0.66684
702 6 2 -0.058306 11.03446 22.24901 1.12796
703 6 4 0.062038 11.92797 23.77654 -1.75901
704 6 4 0.061767 9.98398 22.49187 -2.57840
705 6 4 0.061758 8.71218 21.05179 -1.02611
706 6 4 0.061767 9.38438 20.89638 1.34558
707 6 4 0.062038 11.32838 22.18105 2.16497
708 6 3 0.034915 13.35545 24.44120 -0.05623
709 6 3 0.027687 13.28709 25.44491 2.13075
710 6 3 0.027687 12.14752 24.20130 2.71000
711 6 2 -0.044235 11.72239 26.54266 0.27520
712 6 2 -0.058306 12.77720 27.43363 0.43539
713 6 2 -0.061493 13.18517 28.22661 -0.63083
714 6 2 -0.061741 12.53833 28.12862 -1.85725
715 6 2 -0.061493 11.48352 27.23766 -2.01744
716 6 2 -0.058306 11.07555 26.44468 -0.95121
717 6 4 0.062038 13.27977 27.50976 1.38830
718 6 4 0.061767 14.00473 28.91887 -0.50637
719 6 4 0.061758 12.85532 28.74475 -2.68569
720 6 4 0.061767 10.98095 27.16152 -2.97034
721 6 4 0.062038 10.25599 25.75242 -1.07568
722 6 3 0.034915 10.46041 25.03372 1.11975
723 6 3 0.027687 11.53997 27.33353 2.76598
724 6 3 0.027687 10.57047 25.99064 3.42738
725 6 2 -0.044235 8.95223 28.00564 3.44026
726 6 2 -0.058306 8.76183 29.38203 3.47756
727 6 2 -0.061493 8.27481 29.98527 4.63126
728 6 2 -0.061741 7.97819 29.21211 5.74766
729 6 2 -0.061493 8.16859 27.83572 5.71036
730 6 2 -0.058306 8.65561 27.23248 4.55666
731 6 4 0.062038 8.99230 29.98276 2.61014
732 6 4 0.061767 8.12687 31.05470 4.66024
733 6 4 0.061758 7.59978 29.68081 6.64405
734 6 4 0.061767 7.93812 27.23499 6.57778
735 6 4 0.062038 8.80355 26.16306 4.52768
736 6 3 0.034915 9.72620 28.11247 1.44720
737 6 3 0.027687 8.27230 25.58758 2.25581
738 6 3 0.027687 8.68253 26.14424 0.61185
739 6 2 -0.044235 7.19748 28.44096 0.74731
740 6 2 -0.058306 7.93119 28.46013 -0.43312
741 6 2 -0.061493 8.09796 29.65208 -1.12850
742 6 2 -0.061741 7.53103 30.82486 -0.64345
743 6 2 -0.061493 6.79733 30.80569 0.53698
744 6 2 -0.058306 6.63055 29.61374 1.23236
745 6 4 0.062038 8.37168 27.54890 -0.81000
746 6 4 0.061767 8.66803 29.66697 -2.04567
747 6 4 0.061758 7.66061 31.75097 -1.18374
748 6 4 0.061767 6.35683 31.71691 0.91386
749 6 4 0.062038 6.06048 29.59885 2.14953
750 6 3 0.034915 6.65829 27.35407 2.51102
751 6 3 0.027687 5.90375 25.33607 1.25852
752 6 3 0.027687 6.26140 26.19978 -0.26030
753 6 2 -0.044244 3.58958 25.93936 0.20464
754 6 2 -0.058306 2.83192 26.28921 -0.90696
755 6 2 -0.061493 1.94177 25.37437 -1.45723
756 6 2 -0.061741 1.80928 24.10968 -0.89590
757 6 2 -0.061493 2.56694 23.75982 0.21570
758 6 2 -0.058306 3.45709 24.67467 0.76597
759 6 4 0.062038 2.93486 27.27186 -1.34310
760 6 4 0.061767 1.35308 25.64620 -2.32092
761 6 4 0.061758 1.11766 23.39886 -1.32345
762 6 4 0.061767 2.46400 22.77718 0.65184
763 6 4 0.062038 4.04578 24.40284 1.62966
764 6 3 0.034906 4.57477 27.83992 0.19776
765 6 3 0.027419 4.76363 28.01235 2.63713
766 6 3 0.027419 4.03599 26.39275 2.80506
767 6 2 -0.047337 2.65657 29.09096 1.25939
768 6 2 -0.058572 3.45120 30.20489 1.50399
769 6 2 -0.061501 3.44174 31.27395 0.61566
770 6 2 -0.061742 2.63764 31.22907 -0.51727
771 6 2 -0.061501 1.84301 30.11515 -0.76186
772 6 2 -0.058572 1.85247 29.04609 0.12647
773 6 4 0.062029 4.07596 30.23975 2.38425
774 6 4 0.061766 4.05915 32.13944 0.80570
775 6 4 0.061758 2.63029 32.05971 -1.20748
776 6 4 0.061766 1.21825 30.08028 -1.64212
777 6 4 0.062029 1.23506 28.18059 -0.06358
778 6 3 0.031335 1.94763 27.17629 1.90297
779 6 3 0.023554 17.88896 18.73927 -0.99338
780 6 3 0.031335 2.36146 28.29710 3.20411
781 7 1 -0.058379 31.82520 29.28113 13.93823
782 7 1 -0.018134 31.12276 28.16218 13.16658
783 7 1 -0.039597 31.61330 27.99616 11.72689
784 7 1 -0.014764 30.97028 26.82489 10.98152
785 7 1 -0.039327 31.46786 26.65303 9.54494
786 7 1 -0.014755 30.89854 25.42488 8.83190
787 7 1 -0.039327 31.45047 25.21307 7.42073
788 7 1 -0.014755 30.90154 23.96982 6.71794
789 7 1 -0.039327 31.62312 23.62232 5.41430
790 7 1 -0.014755 31.30879 22.22233 4.88314
791 7 1 -0.039327 31.90949 21.09027 5.71891
792 7 1 -0.014755 31.75822 19.70407 5.08925
793 7 1 -0.039335 30.33392 19.37914 4.63463
794 7 1 -0.015007 30.19135 18.01094 3.96486
795 7 1 -0.042196 28.83235 17.78196 3.30033
796 7 1 -0.027132 27.64001 17.97471 4.23951
797 7 3 0.023554 32.89221 29.05999 13.96448
798 7 3 0.023554 31.65559 30.21907 13.40946
799 7 2 -0.044513 31.35773 26.86283 13.89909
800 7 2 -0.058315 32.64014 26.33279 13.98020
801 7 2 -0.061493 32.85643 25.13670 14.65450
802 7 2 -0.061741 31.79032 24.47065 15.24769
803 7 2 -0.061493 30.50791 25.00069 15.16658
804 7 2 -0.058315 30.29161 26.19678 14.49228
805 7 4 0.062038 33.46849 26.85030 13.51930
806 7 4 0.061767 33.85284 24.72487 14.71752
807 7 4 0.061758 31.95838 23.54131 15.77161
808 7 4 0.061767 29.67956 24.48318 15.62748
809 7 4 0.062038 29.29521 26.60861 14.42926
810 7 3 0.034630 30.05575 28.38332 13.14033
811 7 3 0.027678 32.69119 27.83576 11.74984
812 7 3 0.027678 31.38810 28.91273 11.18165
813 7 2 -0.044235 29.47801 27.05202 10.94118
814 7 2 -0.058306 28.62105 26.15299 11.56526
815 7 2 -0.061493 27.24737 26.36207 11.52813
816 7 2 -0.061741 26.73064 27.47017 10.86692
817 7 2 -0.061493 27.58759 28.36920 10.24284
818 7 2 -0.058306 28.96128 28.16012 10.27997
819 7 4 0.062038 29.02254 25.29202 12.07901
820 7 4 0.061767 26.58153 25.66354 12.01302
821 7 4 0.061758 25.66331 27.63261 10.83806
822 7 4 0.061767 27.18611 29.23017 9.72909
823 7 4 0.062038 29.62712 28.85865 9.79508
824 7 3 0.034915 31.18951 25.90917 11.53060
825 7 3 0.027687 32.55374 26.56133 9.56842
826 7 3 0.027687 31.18452 27.53930 8.97718
827 7 2 -0.044235 31.22823 24.20390 9.65689
828 7 2 -0.058306 32.54458 23.94615 10.02143
829 7 2 -0.061493 32.84808 22.82220 10.78085
830 7 2 -0.061741 31.83523 21.95600 11.17574
831 7 2 -0.061493 30.51888 22.21375 10.81120
832 7 2 -0.058306 30.21538 23.33770 10.05177
833 7 4 0.062038 33.33155 24.61916 9.71461
834 7 4 0.061767 33.87085 22.62193 11.06409
835 7 4 0.061758 32.07104 21.08271 11.76579
836 7 4 0.061767 29.73191 21.54074 11.11801
837 7 4 0.062038 29.19261 23.53797 9.76853
838 7 3 0.034915 29.81711 25.54174 8.76154
839 7 3 0.027687 32.53402 25.11624 7.48892
840 7 3 0.027687 31.19502 26.08576 6.81969
841 7 2 -0.044235 29.44441 24.20943 6.40259
842 7 2 -0.058306 28.46208 23.47251 7.05381
843 7 2 -0.061493 27.12075 23.69307 6.76353
844 7 2 -0.061741 26.76173 24.65055 5.82202
845 7 2 -0.061493 27.74405 25.38747 5.17080
846 7 2 -0.058306 29.08539 25.16691 5.46108
847 7 4 0.062038 28.74103 22.72856 7.78535
848 7 4 0.061767 26.35750 23.12050 7.26952
849 7 4 0.061758 25.71954 24.82192 5.59648
850 7 4 0.061767 27.46511 26.13141 4.43927
851 7 4 0.062038 29.84863 25.73948 4.95510
852 7 3 0.034915 30.99768 23.12306 7.39754
853 7 3 0.027687 32.69680 23.68749 5.59054
854 7 3 0.027687 31.32867 24.34885 4.65697
855 7 2 -0.044235 31.85528 22.11528 3.47958
856 7 2 -0.058306 33.22031 21.94995 3.27597
857 7 2 -0.061493 33.72337 21.85141 1.98394
858 7 2 -0.061741 32.86139 21.91820 0.89553
859 7 2 -0.061493 31.49636 22.08353 1.09914
860 7 2 -0.058306 30.99331 22.18207 2.39117
861 7 4 0.062038 33.89004 21.89805 4.12164
862 7 4 0.061767 34.78397 21.72295 1.82574
863 7 4 0.061758 33.25226 21.84164 -0.10834
864 7 4 0.061767 30.82663 22.13543 0.25347
865 7 4 0.062038 29.93271 22.31053 2.54937
866 7 3 0.034915 30.22601 22.09805 4.86808
867 7 3 0.027687 31.41199 21.08085 6.68871
868 7 3 0.027687 32.97265 21.29086 5.85146
869 7 2 -0.044235 32.17567 18.67278 6.11016
870 7 2 -0.058306 33.15001 17.73406 5.79145
871 7 2 -0.061493 33.53428 16.78473 6.73124
872 7 2 -0.061741 32.94421 16.77410 7.98973
873 7 2 -0.061493 31.96987 17.71281 8.30844
874 7 2 -0.058306 31.58560 18.66215 7.36866
875 7 4 0.062038 33.60848 17.74232 4.81363
876 7 4 0.061767 34.29133 16.05537 6.48360
877 7 4 0.061758 33.24278 16.03648 8.71992
878 7 4 0.061767 31.51139 17.70455 9.28626
879 7 4 0.062038 30.82855 19.39151 7.61629
880 7 3 0.034915 32.41450 19.65021 4.22063
881 7 3 0.027687 30.02047 20.14229 3.92226
882 7 3 0.027687 29.68322 19.40078 5.50882
883 7 2 -0.044244 31.26177 17.88841 2.90691
884 7 2 -0.058306 32.10206 16.78124 2.89336
885 7 2 -0.061493 33.08742 16.66845 1.91948
886 7 2 -0.061741 33.23249 17.66284 0.95915
887 7 2 -0.061493 32.39221 18.77002 0.97269
888 7 2 -0.058306 31.40685 18.88280 1.94657
889 7 4 0.062038 31.98934 16.00862 3.63952
890 7 4 0.061767 33.74030 15.80820 1.90896
891 7 4 0.061758 33.99810 17.57521 0.20246
892 7 4 0.061767 32.50493 19.54263 0.22653
893 7 4 0.062038 30.75396 19.74305 1.95709
894 7 3 0.034906 30.33368 17.24243 4.72462
895 7 3 0.027419 28.80593 16.76072 2.92023
896 7 3 0.027419 28.73341 18.48596 2.47407
897 7 2 -0.047337 26.37386 17.87723 3.42253
898 7 2 -0.058572 25.63772 16.69817 3.41952
899 7 2 -0.061501 24.47219 16.60844 2.66747
900 7 2 -0.061742 24.04280 17.69777 1.91842
901 7 2 -0.061501 24.77893 18.87684 1.92143
902 7 2 -0.058572 25.94446 18.96657 2.67349
903 7 4 0.062029 25.97135 15.85178 4.00151
904 7 4 0.061766 23.90023 15.69233 2.66513
905 7 4 0.061758 23.13721 17.62806 1.33409
906 7 4 0.061766 24.44530 19.72323 1.33944
907 7 4 0.062029 26.51642 19.88268 2.67583
908 7 3 0.031335 27.71488 18.96563 4.68736
909 7 3 0.023554 31.47573 29.39941 14.96389
910 7 3 0.031335 27.58526 17.24019 5.04299
911 8 1 -0.058379 27.97536 30.27999 22.81557
912 8 1 -0.018134 28.23653 31.59689 23.54937
913 8 1 -0.039597 29.54772 32.27963 23.15495
914 8 1 -0.014764 29.51702 32.93456 21.77255
915 8 1 -0.039327 30.87998 33.43599 21.29109
916 8 1 -0.014755 31.95915 32.35260 21.24018
917 8 1 -0.039327 31.63258 31.19277 20.29729
918 8 1 -0.014755 32.78799 30.21022 20.09595
919 8 1 -0.039327 33.38358 29.67444 21.39945
920 8 1 -0.014755 34.48505 28.63180 21.19805
921 8 1 -0.039327 35.26580 28.29758 22.47069
922 8 1 -0.014755 34.38213 27.93094 23.66468
923 8 1 -0.039335 35.16196 27.61971 24.94370
924 8 1 -0.015007 36.13289 28.72458 25.36498
925 8 1 -0.042196 37.02575 28.35001 26.54963
926 8 1 -0.027132 37.90465 29.49657 27.05346
927 8 3 0.023554 27.94479 30.48563 21.74558
928 8 3 0.023554 28.79577 29.59732 23.03689
929 8 2 -0.044513 28.27888 31.31202 25.03164
930 8 2 -0.058315 27.14150 31.50000 25.80826
931 8 2 -0.061493 27.18049 31.23777 27.17275
932 8 2 -0.061741 28.35684 30.78755 27.76061
933 8 2 -0.061493 29.49422 30.59957 26.98399
934 8 2 -0.058315 29.45524 30.86180 25.61951
935 8 4 0.062038 26.22750 31.84981 25.35151
936 8 4 0.061767 26.29677 31.38383 27.77616
937 8 4 0.061758 28.38713 30.58380 28.82078
938 8 4 0.061767 30.40822 30.24975 27.44075
939 8 4 0.062038 30.33896 30.71574 25.01609
940 8 3 0.034630 27.41612 32.27957 23.32805
941 8 3 0.027678 30.33827 31.52922 23.15973
942 8 3 0.027678 29.76658 33.05096 23.89336
943 8 2 -0.044235 28.57261 34.11148 21.82767
944 8 2 -0.058306 27.48951 34.17473 20.95876
945 8 2 -0.061493 26.62015 35.25812 21.00949
946 8 2 -0.061741 26.83388 36.27826 21.92913
947 8 2 -0.061493 27.91697 36.21500 22.79804
948 8 2 -0.058306 28.78634 35.13161 22.74731
949 8 4 0.062038 27.32344 33.38211 20.24422
950 8 4 0.061767 25.77860 35.30727 20.33437
951 8 4 0.061758 26.15840 37.12003 21.96855
952 8 4 0.061767 28.08304 37.00763 23.51258
953 8 4 0.062038 29.62788 35.08247 23.42243
954 8 3 0.034915 29.15041 32.20046 21.05506
955 8 3 0.027687 31.21487 34.21978 21.97052
956 8 3 0.027687 30.75858 33.84433 20.28779
957 8 2 -0.044235 33.24756 32.98983 20.77755
958 8 2 -0.058306 33.42063 33.31344 19.43687
959 8 2 -0.061493 34.60666 33.90002 19.01099
960 8 2 -0.061741 35.61961 34.16299 19.92580
961 8 2 -0.061493 35.44654 33.83938 21.26648
962 8 2 -0.058306 34.26051 33.25280 21.69235
963 8 4 0.062038 32.63359 33.10911 18.72608
964 8 4 0.061767 34.74113 34.15146 17.96931
965 8 4 0.061758 36.54112 34.61876 19.59491
966 8 4 0.061767 36.23358 34.04370 21.97727
967 8 4 0.062038 34.12604 33.00136 22.73403
968 8 3 0.034915 32.08652 31.95013 22.24512
969 8 3 0.027687 31.36413 31.60778 19.32580
970 8 3 0.027687 30.78626 30.64440 20.71097
971 8 2 -0.044235 32.27751 29.03817 19.29232
972 8 2 -0.058306 32.75181 28.81942 18.00419
973 8 2 -0.061493 32.28190 27.74051 17.26443
974 8 2 -0.061741 31.33770 26.88035 17.81280
975 8 2 -0.061493 30.86340 27.09911 19.10093
976 8 2 -0.058306 31.33331 28.17801 19.84070
977 8 4 0.062038 33.48543 29.48774 17.57811
978 8 4 0.061767 32.65042 27.57054 16.26357
979 8 4 0.061758 30.97259 26.04207 17.23802
980 8 4 0.061767 30.12978 26.43078 19.52701
981 8 4 0.062038 30.96479 28.34798 20.84155
982 8 3 0.034915 33.57758 30.72019 19.54407
983 8 3 0.027687 32.58160 29.21637 21.97832
984 8 3 0.027687 33.80503 30.51379 21.95259
985 8 2 -0.044235 35.45754 29.16326 20.17242
986 8 2 -0.058306 35.67899 28.45941 18.99443
987 8 2 -0.061493 36.57420 28.94864 18.05032
988 8 2 -0.061741 37.24796 30.14172 18.28419
989 8 2 -0.061493 37.02652 30.84557 19.46218
990 8 2 -0.058306 36.13131 30.35634 20.40630
991 8 4 0.062038 35.15548 27.53241 18.81272
992 8 4 0.061767 36.74625 28.40177 17.13505
993 8 4 0.061758 37.94352 30.52185 17.55063
994 8 4 0.061767 37.55002 31.77257 19.64390
995 8 4 0.062038 35.95925 30.90322 21.32157
996 8 3 0.034915 34.02430 27.71526 20.82958
997 8 3 0.027687 35.86364 29.16744 22.74279
998 8 3 0.027687 35.91998 27.45212 22.25776
999 8 2 -0.044235 33.57162 26.71131 23.29633
1000 8 2 -0.058306 32.18291 26.76983 23.30921
1001 8 2 -0.061493 31.43681 25.64712 22.97014
1002 8 2 -0.061741 32.07942 24.46590 22.61820
1003 8 2 -0.061493 33.46812 24.40738 22.60532
1004 8 2 -0.058306 34.21423 25.53008 22.94439
1005 8 4 0.062038 31.68362 27.68762 23.58266
1006 8 4 0.061767 30.35781 25.69259 22.98014
1007 8 4 0.061758 31.49971 23.59358 22.35475
1008 8 4 0.061767 33.96742 23.48959 22.33187
1009 8 4 0.062038 35.29322 25.48462 22.93439
1010 8 3 0.034915 33.71587 28.76964 23.86659
1011 8 3 0.027687 35.73402 26.70627 24.78103
1012 8 3 0.027687 34.44615 27.46794 25.75159
1013 8 2 -0.044244 35.32632 29.94256 25.74718
1014 8 2 -0.058306 35.38507 31.08903 24.96343
1015 8 2 -0.061493 34.64260 32.21022 25.31525
1016 8 2 -0.061741 33.84139 32.18494 26.45082
1017 8 2 -0.061493 33.78264 31.03847 27.23457
1018 8 2 -0.058306 34.52511 29.91728 26.88275
1019 8 4 0.062038 36.00759 31.10867 24.08112
1020 8 4 0.061767 34.68825 33.10100 24.70629
1021 8 4 0.061758 33.26451 33.05608 26.72418
1022 8 4 0.061767 33.16011 31.01883 28.11688
1023 8 4 0.062038 34.47946 29.02650 27.49170
1024 8 3 0.034906 36.77383 28.95824 24.51487
1025 8 3 0.027419 37.67607 27.53131 26.24155
1026 8 3 0.027419 36.38593 28.02448 27.36985
1027 8 2 -0.047337 38.91083 29.82907 25.97775
1028 8 2 -0.058572 38.96915 31.11543 25.45432
1029 8 2 -0.061501 39.89537 31.42150 24.46410
1030 8 2 -0.061742 40.76327 30.44122 23.99731
1031 8 2 -0.061501 40.70496 29.15486 24.52074
1032 8 2 -0.058572 39.77873 28.84878 25.51096
1033 8 4 0.062029 38.29481 31.87708 25.81701
1034 8 4 0.061766 39.94069 32.42097 24.05741
1035 8 4 0.061758 41.48293 30.67903 23.22794
1036 8 4 0.061766 41.37930 28.39320 24.15806
1037 8 4 0.062029 39.73342 27.84931 25.91766
1038 8 3 0.031335 37.26575 30.35962 27.24068
1039 8 3 0.023554 27.04124 29.79360 23.09656
1040 8 3 0.031335 38.44801 29.26870 27.97049
1041 9 1 -0.058379 12.12337 17.96107 25.73238
1042 9 1 -0.018134 10.61261 17.72363 25.77867
1043 9 1 -0.039597 10.12454 16.63287 24.82320
1044 9 1 -0.014764 8.68158 16.18859 25.07097
1045 9 1 -0.039327 8.07722 15.37080 23.92779
1046 9 1 -0.014755 6.69403 14.79508 24.23800
1047 9 1 -0.039327 6.04564 14.06454 23.06037
1048 9 1 -0.014755 6.06813 14.85379 21.74985
1049 9 1 -0.039327 5.57415 16.29570 21.88324
1050 9 1 -0.014755 5.47035 17.04356 20.55251
1051 9 1 -0.039327 6.81087 17.23591 19.84055
1052 9 1 -0.014755 6.71861 18.05287 18.55021
1053 9 1 -0.039335 8.01647 18.08632 17.74069
1054 9 1 -0.015007 9.24516 18.50296 18.55164
1055 9 1 -0.042196 10.45445 18.88656 17.69643
1056 9 1 -0.027132 11.75812 19.01952 18.48616
1057 9 3 0.023554 12.62367 17.02880 25.99441
1058 9 3 0.023554 12.39235 18.25147 24.71679
1059 9 2 -0.044513 10.23998 17.32134 27.18559
1060 9 2 -0.058315 10.32893 15.98977 27.57433
1061 9 2 -0.061493 9.98591 15.61946 28.86943
1062 9 2 -0.061741 9.55395 16.58071 29.77580
1063 9 2 -0.061493 9.46500 17.91228 29.38706
1064 9 2 -0.058315 9.80802 18.28259 28.09195
1065 9 4 0.062038 10.66456 15.24290 26.87010
1066 9 4 0.061767 10.05502 14.58486 29.17148
1067 9 4 0.061758 9.28743 16.29298 30.78207
1068 9 4 0.061767 9.12938 18.65915 30.09129
1069 9 4 0.062038 9.73891 19.31719 27.78991
1070 9 3 0.034630 10.11231 18.65590 25.51663
1071 9 3 0.027678 10.77339 15.76439 24.93652
1072 9 3 0.027678 10.19397 17.01504 23.80476
1073 9 2 -0.044235 7.83420 17.42259 25.26917
1074 9 2 -0.058306 6.97562 17.50843 26.35893
1075 9 2 -0.061493 6.19558 18.64436 26.54137
1076 9 2 -0.061741 6.27411 19.69446 25.63405
1077 9 2 -0.061493 7.13269 19.60862 24.54429
1078 9 2 -0.058306 7.91273 18.47269 24.36185
1079 9 4 0.062038 6.91460 16.69252 27.06390
1080 9 4 0.061767 5.52848 18.71106 27.38809
1081 9 4 0.061758 5.66804 20.57706 25.77581
1082 9 4 0.061767 7.19371 20.42452 23.83932
1083 9 4 0.062038 8.57983 18.40599 23.51513
1084 9 3 0.034915 8.66245 15.57878 25.97423
1085 9 3 0.027687 8.75038 14.54222 23.70774
1086 9 3 0.027687 7.98993 16.01729 23.05456
1087 9 2 -0.044235 6.83373 13.81862 25.38129
1088 9 2 -0.058306 6.05270 13.96713 26.52148
1089 9 2 -0.061493 6.18130 13.06828 27.57392
1090 9 2 -0.061741 7.09092 12.02090 27.48616
1091 9 2 -0.061493 7.87194 11.87239 26.34596
1092 9 2 -0.058306 7.74335 12.77125 25.29353
1093 9 4 0.062038 5.34595 14.78092 26.58967
1094 9 4 0.061767 5.57446 13.18367 28.45982
1095 9 4 0.061758 7.19083 11.32251 28.30388
1096 9 4 0.061767 8.57870 11.05860 26.27778
1097 9 4 0.062038 8.35019 12.65586 24.40763
1098 9 3 0.034915 6.04046 15.61640 24.53189
1099 9 3 0.027687 5.00653 13.85829 23.31690
1100 9 3 0.027687 6.58010 13.12755 22.90382
1101 9 2 -0.044235 5.18485 14.14151 20.75358
1102 9 2 -0.058306 5.75202 13.33343 19.77510
1103 9 2 -0.061493 4.93893 12.67776 18.85799
1104 9 2 -0.061741 3.55867 12.83016 18.91937
1105 9 2 -0.061493 2.99150 13.63824 19.89785
1106 9 2 -0.058306 3.80459 14.29392 20.81496
1107 9 4 0.062038 6.82444 13.21502 19.72741
1108 9 4 0.061767 5.37961 12.04989 18.09774
1109 9 4 0.061758 2.92692 12.32071 18.20680
1110 9 4 0.061767 1.91908 13.75666 19.94554
1111 9 4 0.062038 3.36391 14.92178 21.57521
1112 9 3 0.034915 7.09423 14.87702 21.38288
1113 9 3 0.027687 6.26909 16.83662 22.52554
1114 9 3 0.027687 4.58570 16.27686 22.34227
1115 9 2 -0.044235 4.87752 18.40617 20.82077
1116 9 2 -0.058306 5.65393 19.39862 21.40755
1117 9 2 -0.061493 5.10822 20.65294 21.65449
1118 9 2 -0.061741 3.78609 20.91481 21.31465
1119 9 2 -0.061493 3.00967 19.92235 20.72787
1120 9 2 -0.058306 3.55539 18.66803 20.48093
1121 9 4 0.062038 6.68120 19.19516 21.67160
1122 9 4 0.061767 5.71148 21.42406 22.11041
1123 9 4 0.061758 3.36208 21.88938 21.50651
1124 9 4 0.061767 1.98240 20.12581 20.46382
1125 9 4 0.062038 2.95213 17.89692 20.02501
1126 9 3 0.034915 4.81182 16.47784 19.89342
1127 9 3 0.027687 7.21071 16.25232 19.59401
1128 9 3 0.027687 7.48881 17.74964 20.52214
1129 9 2 -0.044235 5.63719 17.45058 17.68541
1130 9 2 -0.058306 5.62472 16.08241 17.44037
1131 9 2 -0.061493 4.62924 15.52797 16.64429
1132 9 2 -0.061741 3.64624 16.34172 16.09326
1133 9 2 -0.061493 3.65872 17.70989 16.33830
1134 9 2 -0.058306 4.65420 18.26432 17.13438
1135 9 4 0.062038 6.38848 15.45014 17.86851
1136 9 4 0.061767 4.61955 14.46493 16.45390
1137 9 4 0.061758 2.87278 15.91094 15.47473
1138 9 4 0.061767 2.89495 18.34215 15.91016
1139 9 4 0.062038 4.66389 19.32736 17.32477
1140 9 3 0.034915 6.45354 19.07703 18.81280
1141 9 3 0.027687 7.89054 18.79583 16.92287
1142 9 3 0.027687 8.19444 17.08856 17.33956
1143 9 2 -0.044244 8.86975 19.69367 19.40099
1144 9 2 -0.058306 9.03011 19.64142 20.78071
1145 9 2 -0.061493 8.68453 20.73750 21.56256
1146 9 2 -0.061741 8.17858 21.88583 20.96468
1147 9 2 -0.061493 8.01822 21.93807 19.58495
1148 9 2 -0.058306 8.36380 20.84199 18.80310
1149 9 4 0.062038 9.42322 18.74919 21.24526
1150 9 4 0.061767 8.80913 20.69690 22.63458
1151 9 4 0.061758 7.91007 22.73746 21.57216
1152 9 4 0.061767 7.62511 22.83030 19.12041
1153 9 4 0.062038 8.23920 20.88259 17.73108
1154 9 3 0.034906 9.53075 17.66831 19.19186
1155 9 3 0.027419 10.24522 19.84395 17.21923
1156 9 3 0.027419 10.59268 18.11770 16.93627
1157 9 2 -0.047337 12.77139 19.71894 17.61198
1158 9 2 -0.058572 13.42757 20.85199 18.07862
1159 9 2 -0.061501 14.36031 21.49583 17.27391
1160 9 2 -0.061742 14.63688 21.00663 16.00257
1161 9 2 -0.061501 13.98070 19.87359 15.53594
1162 9 2 -0.058572 13.04795 19.22975 16.34065
1163 9 4 0.062029 13.21268 21.23208 19.06642
1164 9 4 0.061766 14.87015 22.37618 17.63647
1165 9 4 0.061758 15.36160 21.50688 15.37733
1166 9 4 0.061766 14.19558 19.49349 14.54814
1167 9 4 0.062029 12.53811 18.34940 15.97809
1168 9 3 0.031335 11.55971 19.61988 19.37402
1169 9 3 0.023554 12.47108 18.73815 26.41307
1170 9 3 0.031335 12.18206 18.06748 18.80554
1171 10 1 -0.058379 18.36166 13.48168 17.23559
1172 10 1 -0.018134 18.48594 15.00628 17.26808
1173 10 1 -0.039597 19.92899 15.51380 17.23786
1174 10 1 -0.014764 20.70737 15.25353 18.52910
1175 10 1 -0.039327 22.10593 15.87366 18.54840
1176 10 1 -0.014755 22.97509 15.48615 17.35036
1177 10 1 -0.039327 24.38901 16.06917 17.39283
1178 10 1 -0.014755 24.45180 17.57085 17.10662
1179 10 1 -0.039327 24.14584 17.94081 15.65389
1180 10 1 -0.014755 23.91418 19.43622 15.42810
1181 10 1 -0.039327 23.69086 19.81714 13.96320
1182 10 1 -0.014755 23.27052 21.27361 13.75605
1183 10 1 -0.039335 24.14978 22.28590 14.49296
1184 10 1 -0.015007 23.89095 23.74055 14.09560
1185 10 1 -0.042196 24.78449 24.75125 14.81738
1186 10 1 -0.027132 24.68265 26.17561 14.26808
1187 10 3 0.023554 18.83158 13.12026 16.32091
1188 10 3 0.023554 18.88375 13.07803 18.10311
1189 10 2 -0.044513 17.76267 15.56546 16.06629
1190 10 2 -0.058315 18.37266 15.54715 14.81742
1191 10 2 -0.061493 17.70687 16.06190 13.71114
1192 10 2 -0.061741 16.43109 16.59495 13.85372
1193 10 2 -0.061493 15.82110 16.61326 15.10259
1194 10 2 -0.058315 16.48689 16.09851 16.20888
1195 10 4 0.062038 19.36392 15.13298 14.70664
1196 10 4 0.061767 18.18083 16.04767 12.74080
1197 10 4 0.061758 15.91379 16.99490 12.99417
1198 10 4 0.061767 14.82984 17.02743 15.21338
1199 10 4 0.062038 16.01293 16.11274 17.17922
1200 10 3 0.034630 18.01601 15.36770 18.18276
1201 10 3 0.027678 19.90900 16.58937 17.06220
1202 10 3 0.027678 20.44897 15.01580 16.41950
1203 10 2 -0.044235 19.91878 15.82929 19.68093
1204 10 2 -0.058306 19.81126 17.20712 19.82970
1205 10 2 -0.061493 19.08533 17.73713 20.88999
1206 10 2 -0.061741 18.46693 16.88931 21.80152
1207 10 2 -0.061493 18.57445 15.51148 21.65275
1208 10 2 -0.058306 19.30037 14.98147 20.59245
1209 10 4 0.062038 20.29174 17.86585 19.12146
1210 10 4 0.061767 19.00179 18.80767 21.00558
1211 10 4 0.061758 17.90290 17.30111 22.62535
1212 10 4 0.061767 18.09396 14.85274 22.36099
1213 10 4 0.062038 19.38391 13.91093 20.47686
1214 10 3 0.034915 20.81010 14.17564 18.65442
1215 10 3 0.027687 22.61172 15.54698 19.45700
1216 10 3 0.027687 21.99836 16.95832 18.55552
1217 10 2 -0.044235 23.08522 13.98063 17.31324
1218 10 2 -0.058306 22.77311 13.28946 16.14835
1219 10 2 -0.061493 22.87449 11.90358 16.11418
1220 10 2 -0.061741 23.28798 11.20888 17.24489
1221 10 2 -0.061493 23.60009 11.90005 18.40978
1222 10 2 -0.058306 23.49871 13.28593 18.44396
1223 10 4 0.062038 22.45184 13.82922 15.26981
1224 10 4 0.061767 22.63199 11.36655 15.20909
1225 10 4 0.061758 23.36675 10.13208 17.21834
1226 10 4 0.061767 23.92136 11.36028 19.28833
1227 10 4 0.062038 23.74121 13.82296 19.34905
1228 10 3 0.034915 22.48580 15.84286 16.44402
1229 10 3 0.027687 24.99336 15.55379 16.64634
1230 10 3 0.027687 24.80102 15.89350 18.38655
1231 10 2 -0.044235 25.84295 18.05724 17.43559
1232 10 2 -0.058306 26.92238 17.65299 16.65873
1233 10 2 -0.061493 28.20297 18.10073 16.96156
1234 10 2 -0.061741 28.40414 18.95273 18.04126
1235 10 2 -0.061493 27.32471 19.35698 18.81812
1236 10 2 -0.058306 26.04411 18.90924 18.51529
1237 10 4 0.062038 26.76607 16.99101 15.81983
1238 10 4 0.061767 29.04166 17.78664 16.35796
1239 10 4 0.061758 29.39913 19.30061 18.27655
1240 10 4 0.061767 27.48101 20.01896 19.65702
1241 10 4 0.062038 25.20542 19.22333 19.11889
1242 10 3 0.034915 23.72497 18.07105 17.74663
1243 10 3 0.027687 23.24686 17.40598 15.34747
1244 10 3 0.027687 24.98893 17.62903 15.03737
1245 10 2 -0.044235 22.69408 19.85000 16.21565
1246 10 2 -0.058306 21.42333 19.57673 15.72310
1247 10 2 -0.061493 20.30019 19.95763 16.44807
1248 10 2 -0.061741 20.44781 20.61180 17.66560
1249 10 2 -0.061493 21.71856 20.88507 18.15815
1250 10 2 -0.058306 22.84170 20.50417 17.43318
1251 10 4 0.062038 21.30863 19.06845 14.77711
1252 10 4 0.061767 19.31285 19.74531 16.06536
1253 10 4 0.061758 19.57516 20.90775 18.22888
1254 10 4 0.061767 21.83326 21.39335 19.10414
1255 10 4 0.062038 23.82905 20.71649 17.81589
1256 10 3 0.034915 24.78864 19.97587 15.79168
1257 10 3 0.027687 22.90819 19.17514 13.55901
1258 10 3 0.027687 24.62173 19.65008 13.42128
1259 10 2 -0.044235 23.33451 21.57875 12.27858
1260 10 2 -0.058306 24.56665 21.71303 11.64938
1261 10 2 -0.061493 24.62555 21.99393 10.28933
1262 10 2 -0.061741 23.45232 22.14055 9.55849
1263 10 2 -0.061493 22.22018 22.00627 10.18770
1264 10 2 -0.058306 22.16127 21.72537 11.54775
1265 10 4 0.062038 25.47822 21.59911 12.21722
1266 10 4 0.061767 25.58290 22.09826 9.80045
1267 10 4 0.061758 23.49808 22.35880 8.50176
1268 10 4 0.061767 21.30860 22.12019 9.61985
1269 10 4 0.062038 21.20393 21.62104 12.03663
1270 10 3 0.034915 22.24673 21.38745 14.11240
1271 10 3 0.027687 25.19256 22.05337 14.27698
1272 10 3 0.027687 23.96312 22.18568 15.56217
1273 10 2 -0.044244 22.45201 24.06905 14.41445
1274 10 2 -0.058306 21.59532 24.49133 13.40457
1275 10 2 -0.061493 20.27074 24.79372 13.69808
1276 10 2 -0.061741 19.80285 24.67383 15.00146
1277 10 2 -0.061493 20.65955 24.25155 16.01134
1278 10 2 -0.058306 21.98413 23.94916 15.71783
1279 10 4 0.062038 21.95885 24.58448 12.39187
1280 10 4 0.061767 19.60510 25.12182 12.91343
1281 10 4 0.061758 18.77368 24.90878 15.22951
1282 10 4 0.061767 20.29601 24.15840 17.02404
1283 10 4 0.062038 22.64976 23.62106 16.50249
1284 10 3 0.034906 24.06279 23.83738 13.02360
1285 10 3 0.027419 25.81906 24.42166 14.72182
1286 10 3 0.027419 24.49867 24.76969 15.86908
1287 10 2 -0.047337 25.46759 27.09046 15.17748
1288 10 2 -0.058572 26.85394 27.00138 15.22450
1289 10 2 -0.061501 27.57650 27.84352 16.06163
1290 10 2 -0.061742 26.91271 28.77476 16.85175
1291 10 2 -0.061501 25.52637 28.86385 16.80474
1292 10 2 -0.058572 24.80381 28.02170 15.96760
1293 10 4 0.062029 27.36968 26.27782 14.61059
1294 10 4 0.061766 28.65366 27.77430 16.09816
1295 10 4 0.061758 27.47412 29.42909 17.50219
1296 10 4 0.061766 25.01062 29.58740 17.41864
1297 10 4 0.062029 23.72665 28.09092 15.93107
1298 10 3 0.031335 23.63241 26.46733 14.26832
1299 10 3 0.023554 17.33360 13.12011 17.25712
1300 10 3 0.031335 25.06813 26.28863 13.25480
ITEM: TIMESTEP
2000
ITEM: NUMBER OF ATOMS
1300
ITEM: BOX BOUNDS pp pp pp
0.0 33.0
0.0 33.0
0.0 33.0
ITEM: ATOMS id mol type q xu yu zu
1 1 1 -0.058379 21.07250 0.98699 30.42092
2 1 1 -0.018134 19.63940 1.21159 30.90742
3 1 1 -0.039597 18.66912 1.64447 29.80648
4 1 1 -0.014764 18.86132 3.08896 29.34021
5 1 1 -0.039327 17.81963 3.55824 28.32258
6 1 1 -0.014755 17.98310 5.01742 27.89250
7 1 1 -0.039327 16.84789 5.53631 27.00767
8 1 1 -0.014755 17.03936 6.97754 26.53114
9 1 1 -0.039327 15.84009 7.54574 25.76970
10 1 1 -0.014755 16.09560 8.91638 25.13963
11 1 1 -0.039327 14.87143 9.52242 24.45041
12 1 1 -0.014755 15.09953 10.93339 23.90449
13 1 1 -0.039335 13.83324 11.60670 23.37153
14 1 1 -0.015007 13.35077 11.05150 22.02994
15 1 1 -0.042196 11.99697 11.60332 21.57872
16 1 1 -0.027132 11.36353 10.82846 20.42146
17 1 3 0.023554 21.05565 0.21059 29.65605
18 1 3 0.023554 21.43749 1.92006 29.99167
19 1 2 -0.044513 19.13376 -0.08102 31.50206
20 1 2 -0.058315 18.55776 -1.04464 30.68245
21 1 2 -0.061493 18.09231 -2.23452 31.22984
22 1 2 -0.061741 18.20285 -2.46078 32.59683
23 1 2 -0.061493 18.77885 -1.49716 33.41645
24 1 2 -0.058315 19.24431 -0.30728 32.86906
25 1 4 0.062038 18.47187 -0.86884 29.62032
26 1 4 0.061767 17.64477 -2.98323 30.59302
27 1 4 0.061758 17.84121 -3.38529 33.02214
28 1 4 0.061767 18.86474 -1.67296 34.47857
29 1 4 0.062038 19.69184 0.44143 33.50588
30 1 3 0.034630 19.65625 1.98799 31.67228
31 1 3 0.027678 17.65292 1.54087 30.18689
32 1 3 0.027678 18.81086 0.98711 28.94864
33 1 2 -0.044235 18.78149 3.99064 30.54881
34 1 2 -0.058306 17.61070 4.04973 31.29571
35 1 2 -0.061493 17.53721 4.87976 32.40826
36 1 2 -0.061741 18.63451 5.65069 32.77390
37 1 2 -0.061493 19.80530 5.59160 32.02700
38 1 2 -0.058306 19.87879 4.76157 30.91445
39 1 4 0.062038 16.75812 3.45074 31.01161
40 1 4 0.061767 16.62754 4.92567 32.98858
41 1 4 0.061758 18.57742 6.29560 33.63832
42 1 4 0.061767 20.65788 6.19059 32.31109
43 1 4 0.062038 20.78847 4.71566 30.33412
44 1 3 0.034915 19.84711 3.17166 28.88253
45 1 3 0.027687 16.83133 3.44210 28.76741
46 1 3 0.027687 17.90138 2.92974 27.43579
47 1 2 -0.044235 19.27669 5.14175 27.12356
48 1 2 -0.058306 19.48138 4.37890 25.97977
49 1 2 -0.061493 20.67217 4.49335 25.27193
50 1 2 -0.061741 21.65826 5.37065 25.70789
51 1 2 -0.061493 21.45357 6.13350 26.85168
52 1 2 -0.058306 20.26279 6.01905 27.55952
53 1 4 0.062038 18.71521 3.69726 25.64104
54 1 4 0.061767 20.83121 3.90063 24.38323
55 1 4 0.061758 22.58348 5.45958 25.15791
56 1 4 0.061767 22.21975 6.81515 27.19041
57 1 4 0.062038 20.10375 6.61177 28.44822
58 1 3 0.034915 18.02624 5.63497 28.78964
59 1 3 0.027687 15.92025 5.48563 27.57777
60 1 3 0.027687 16.77755 4.89318 26.13044
61 1 2 -0.044235 17.28647 7.84677 27.74088
62 1 2 -0.058306 16.35613 7.88213 28.77301
63 1 2 -0.061493 16.58360 8.68229 29.88662
64 1 2 -0.061741 17.74142 9.44708 29.96808
65 1 2 -0.061493 18.67177 9.41172 28.93595
66 1 2 -0.058306 18.44430 8.61157 27.82235
67 1 4 0.062038 15.45652 7.28791 28.70971
68 1 4 0.061767 15.86074 8.70976 30.68856
69 1 4 0.061758 17.91817 10.06878 30.83333
70 1 4 0.061767 19.57137 10.00595 28.99925
71 1 4 0.062038 19.16716 8.58409 27.02040
72 1 3 0.034915 17.90714 7.00680 25.87220
73 1 3 0.027687 15.00702 7.64015 26.46625
74 1 3 0.027687 15.57883 6.84773 24.97433
75 1 2 -0.044235 17.19168 8.76747 24.11175
76 1 2 -0.058306 16.95332 8.06037 22.93903
77 1 2 -0.061493 17.96230 7.92330 21.99283
78 1 2 -0.061741 19.20964 8.49333 22.21937
79 1 2 -0.061493 19.44799 9.20044 23.39210
80 1 2 -0.058306 18.43902 9.33751 24.33829
81 1 4 0.062038 15.98417 7.61747 22.76301
82 1 4 0.061767 17.77710 7.37390 21.08165
83 1 4 0.061758 19.99359 8.38683 21.48420
84 1 4 0.061767 20.41714 9.64334 23.56811
85 1 4 0.062038 18.62421 9.88691 25.24947
86 1 3 0.034915 16.41744 9.59900 25.92610
87 1 3 0.027687 14.05766 9.56390 25.17441
88 1 3 0.027687 14.59275 8.87545 23.61862
89 1 2 -0.044235 15.65611 11.78730 25.01857
90 1 2 -0.058306 14.81995 12.23640 26.03407
91 1 2 -0.061493 15.33229 13.02245 27.05961
92 1 2 -0.061741 16.68080 13.35939 27.06965
93 1 2 -0.061493 17.51696 12.91029 26.05414
94 1 2 -0.058306 17.00461 12.12425 25.02860
95 1 4 0.062038 13.77219 11.97459 26.02627
96 1 4 0.061767 14.68261 13.37139 27.84863
97 1 4 0.061758 17.07888 13.97014 27.86647
98 1 4 0.061767 18.56472 13.17210 26.06194
99 1 4 0.062038 17.65429 11.77531 24.23958
100 1 3 0.034915 15.82189 10.87188 23.09054
101 1 3 0.027687 14.03848 12.66994 23.24705
102 1 3 0.027687 13.03837 11.46758 24.10429
103 1 2 -0.044244 14.37715 11.39811 20.97803
104 1 2 -0.058306 14.99058 10.38812 20.24610
105 1 2 -0.061493 15.93539 10.70719 19.27779
106 1 2 -0.061741 16.26677 12.03626 19.04141
107 1 2 -0.061493 15.65335 13.04625 19.77334
108 1 2 -0.058306 14.70853 12.72718 20.74165
109 1 4 0.062038 14.73310 9.35547 20.42976
110 1 4 0.061767 16.41201 9.92245 18.70909
111 1 4 0.061758 17.00087 12.28417 18.28905
112 1 4 0.061767 15.91082 14.07890 19.58968
113 1 4 0.062038 14.23192 13.51192 21.31035
114 1 3 0.034906 13.26533 9.96855 22.11949
115 1 3 0.027419 12.13811 12.63642 21.26109
116 1 3 0.027419 11.31395 11.56820 22.42745
117 1 2 -0.047337 11.24164 9.38057 20.83237
118 1 2 -0.058572 12.13200 8.43842 20.33068
119 1 2 -0.061501 12.01979 7.10559 20.70893
120 1 2 -0.061742 11.01722 6.71491 21.58889
121 1 2 -0.061501 10.12685 7.65707 22.09058
122 1 2 -0.058572 10.23906 8.98989 21.71233
123 1 4 0.062029 12.91098 8.74196 19.64697
124 1 4 0.061766 12.71158 6.37356 20.31913
125 1 4 0.061758 10.93003 5.67933 21.88278
126 1 4 0.061766 9.34787 7.35352 22.77429
127 1 4 0.062029 9.54727 9.72193 22.10213
128 1 3 0.031335 12.01950 10.91222 19.55498
129 1 3 0.023554 21.76374 0.67860 31.20525
130 1 3 0.031335 10.37435 11.18697 20.13672
131 2 1 -0.058379 9.16652 -5.85850 17.45455
132 2 1 -0.018134 8.62636 -5.98763 16.02890
133 2 1 -0.039597 8.36216 -4.64741 15.33976
134 2 1 -0.014764 8.10027 -4.76150 13.83666
135 2 1 -0.039327 7.58448 -3.47179 13.19519
136 2 1 -0.014755 8.46185 -2.24795 13.46602
137 2 1 -0.039327 8.15657 -1.05125 12.56290
138 2 1 -0.014755 8.87856 0.23508 12.96907
139 2 1 -0.039327 8.81430 1.34367 11.91655
140 2 1 -0.014755 9.32447 2.69950 12.40885
141 2 1 -0.039327 9.19790 3.82348 11.37854
142 2 1 -0.014755 7.76067 4.29165 11.14171
143 2 1 -0.039335 7.62452 5.35542 10.05049
144 2 1 -0.015007 7.84719 4.82475 8.63285
145 2 1 -0.042196 7.63162 5.86966 7.53622
146 2 1 -0.027132 8.74965 6.90960 7.43910
147 2 3 0.023554 10.10413 -5.30402 17.41546
148 2 3 0.023554 8.43648 -5.30771 18.04764
149 2 2 -0.044513 9.63770 -6.75065 15.20727
150 2 2 -0.058315 10.66154 -6.07032 14.55842
151 2 2 -0.061493 11.59251 -6.77271 13.80209
152 2 2 -0.061741 11.49964 -8.15543 13.69460
153 2 2 -0.061493 10.47581 -8.83577 14.34345
154 2 2 -0.058315 9.54484 -8.13338 15.09978
155 2 4 0.062038 10.73370 -4.99598 14.64194
156 2 4 0.061767 12.38801 -6.24411 13.29794
157 2 4 0.061758 12.22299 -8.70118 13.10694
158 2 4 0.061767 10.40365 -9.91011 14.25993
159 2 4 0.062038 8.74934 -8.66198 15.60392
160 2 3 0.034630 7.68875 -6.54211 16.06798
161 2 3 0.027678 9.23408 -4.01009 15.48697
162 2 3 0.027678 7.48849 -4.19077 15.80482
163 2 2 -0.044235 7.07046 -5.84375 13.61683
164 2 2 -0.058306 7.25056 -6.77921 12.60461
165 2 2 -0.061493 6.30258 -7.77545 12.40225
166 2 2 -0.061741 5.17451 -7.83623 13.21210
167 2 2 -0.061493 4.99441 -6.90077 14.22432
168 2 2 -0.058306 5.94239 -5.90453 14.42668
169 2 4 0.062038 8.12704 -6.73198 11.97537
170 2 4 0.061767 6.44251 -8.50228 11.61578
171 2 4 0.061758 4.43796 -8.61029 13.05487
172 2 4 0.061767 4.11793 -6.94800 14.85356
173 2 4 0.062038 5.80246 -5.17770 15.21315
174 2 3 0.034915 9.03464 -5.03626 13.34722
175 2 3 0.027687 6.58748 -3.27058 13.58712
176 2 3 0.027687 7.53351 -3.62344 12.11699
177 2 2 -0.044235 9.90374 -2.64377 13.25537
178 2 2 -0.058306 10.29185 -3.24792 12.06521
179 2 2 -0.061493 11.61915 -3.61228 11.87130
180 2 2 -0.061741 12.55835 -3.37249 12.86754
181 2 2 -0.061493 12.17024 -2.76834 14.05770
182 2 2 -0.058306 10.84294 -2.40398 14.25161
183 2 4 0.062038 9.56211 -3.43423 11.29115
184 2 4 0.061767 11.92070 -4.08169 10.94657
185 2 4 0.061758 13.58964 -3.65559 12.71688
186 2 4 0.061767 12.89998 -2.58203 14.83176
187 2 4 0.062038 10.54139 -1.93457 15.17634
188 2 3 0.034915 8.31062 -1.94181 14.50116
189 2 3 0.027687 7.08311 -0.86478 12.59449
190 2 3 0.027687 8.45730 -1.30516 11.54644
191 2 2 -0.044235 8.24605 0.75158 14.23921
192 2 2 -0.058306 8.95964 0.72471 15.43175
193 2 2 -0.061493 8.37739 1.20016 16.60095
194 2 2 -0.061741 7.08154 1.70248 16.57760
195 2 2 -0.061493 6.36794 1.72935 15.38506
196 2 2 -0.058306 6.95020 1.25390 14.21586
197 2 4 0.062038 9.96649 0.33442 15.44989
198 2 4 0.061767 8.93184 1.17929 17.52753
199 2 4 0.061758 6.62914 2.07190 17.48605
200 2 4 0.061767 5.36109 2.11965 15.36692
201 2 4 0.062038 6.39575 1.27478 13.28928
202 2 3 0.034915 9.92660 -0.00406 13.14947
203 2 3 0.027687 7.77563 1.46140 11.60770
204 2 3 0.027687 9.42088 1.03998 11.06336
205 2 2 -0.044235 10.78282 2.55267 12.77182
206 2 2 -0.058306 11.70669 2.18261 11.80145
207 2 2 -0.061493 13.04915 2.04744 12.13557
208 2 2 -0.061741 13.46773 2.28233 13.44007
209 2 2 -0.061493 12.54386 2.65238 14.41044
210 2 2 -0.058306 11.20141 2.78755 14.07632
211 2 4 0.062038 11.38145 2.00011 10.78788
212 2 4 0.061767 13.76697 1.75992 11.38161
213 2 4 0.061758 14.51079 2.17730 13.69968
214 2 4 0.061767 12.86910 2.83488 15.42401
215 2 4 0.062038 10.48358 3.07507 14.83028
216 2 3 0.034915 8.75072 2.97990 13.29219
217 2 3 0.027687 9.60071 3.46517 10.43120
218 2 3 0.027687 9.78099 4.67512 11.72899
219 2 2 -0.044235 7.23234 4.86866 12.43323
220 2 2 -0.058306 7.68201 6.10696 12.87653
221 2 2 -0.061493 7.19567 6.63811 14.06541
222 2 2 -0.061741 6.25965 5.93096 14.81100
223 2 2 -0.061493 5.80997 4.69266 14.36771
224 2 2 -0.058306 6.29631 4.16151 13.17883
225 2 4 0.062038 8.40928 6.65639 12.29722
226 2 4 0.061767 7.54506 7.60024 14.40984
227 2 4 0.061758 5.88177 6.34365 15.73474
228 2 4 0.061767 5.08270 4.14322 14.94702
229 2 4 0.062038 5.94693 3.19938 12.83440
230 2 3 0.034915 7.16333 3.42711 10.85212
231 2 3 0.027687 8.35986 6.13692 10.24191
232 2 3 0.027687 6.61926 5.77331 10.10462
233 2 2 -0.044244 6.88368 3.68622 8.39727
234 2 2 -0.058306 7.28581 2.37609 8.62952
235 2 2 -0.061493 6.39887 1.32804 8.41266
236 2 2 -0.061741 5.10980 1.59012 7.96355
237 2 2 -0.061493 4.70767 2.90026 7.73130
238 2 2 -0.058306 5.59461 3.94831 7.94816
239 2 4 0.062038 8.28740 2.17246 8.97848
240 2 4 0.061767 6.71132 0.31010 8.59312
241 2 4 0.061758 4.42067 0.77581 7.79506
242 2 4 0.061767 3.70608 3.10389 7.38235
243 2 4 0.062038 5.28216 4.96625 7.76770
244 2 3 0.034906 8.87237 4.46142 8.56144
245 2 3 0.027419 6.69681 6.39151 7.74091
246 2 3 0.027419 7.56326 5.35154 6.57967
247 2 2 -0.047337 10.00737 6.21050 6.98138
248 2 2 -0.058572 10.26245 6.05724 5.62361
249 2 2 -0.061501 11.42022 5.41370 5.20226
250 2 2 -0.061742 12.32290 4.92343 6.13869
251 2 2 -0.061501 12.06782 5.07670 7.49646
252 2 2 -0.058572 10.91005 5.72023 7.91781
253 2 4 0.062029 9.56108 6.43817 4.89602
254 2 4 0.061766 11.61841 5.29462 4.14731
255 2 4 0.061758 13.22247 4.42341 5.81132
256 2 4 0.061766 12.76919 4.69577 8.22404
257 2 4 0.062029 10.71186 5.83932 8.97276
258 2 3 0.031335 8.90485 7.33751 8.42950
259 2 3 0.023554 9.35474 -6.81330 17.94550
260 2 3 0.031335 8.53932 7.72315 6.74483
261 3 1 -0.058379 6.90331 0.64302 -3.17627
262 3 1 -0.018134 6.22907 1.81933 -2.46731
263 3 1 -0.039597 7.17468 2.64182 -1.58968
264 3 1 -0.014764 6.58904 3.97665 -1.12475
265 3 1 -0.039327 7.54277 4.80909 -0.26549
266 3 1 -0.014755 6.98227 6.17265 0.14370
267 3 1 -0.039327 8.00069 7.08254 0.83352
268 3 1 -0.014755 8.80798 6.39107 1.93399
269 3 1 -0.039327 9.71425 7.33464 2.72724
270 3 1 -0.014755 10.72062 8.10084 1.86640
271 3 1 -0.039327 11.79422 8.83683 2.67051
272 3 1 -0.014755 11.23514 9.81157 3.70888
273 3 1 -0.039335 12.30130 10.66490 4.39883
274 3 1 -0.015007 11.73282 11.79288 5.26220
275 3 1 -0.042196 12.79217 12.57310 6.04317
276 3 1 -0.027132 13.89201 13.17671 5.16744
277 3 3 0.023554 7.69989 1.03624 -3.80789
278 3 3 0.023554 7.32522 -0.01634 -2.41776
279 3 2 -0.044513 5.64459 2.73276 -3.51809
280 3 2 -0.058315 6.48278 3.39446 -4.40785
281 3 2 -0.061493 5.94475 4.23530 -5.37512
282 3 2 -0.061741 4.56852 4.41444 -5.45263
283 3 2 -0.061493 3.73033 3.75273 -4.56286
284 3 2 -0.058315 4.26836 2.91190 -3.59559
285 3 4 0.062038 7.55208 3.25528 -4.34763
286 3 4 0.061767 6.59601 4.74943 -6.06645
287 3 4 0.061758 4.15048 5.06775 -6.20417
288 3 4 0.061767 2.66103 3.89192 -4.62308
289 3 4 0.062038 3.61710 2.39777 -2.90426
290 3 3 0.034630 5.43249 1.42612 -1.83569
291 3 3 0.027678 8.07964 2.84676 -2.16165
292 3 3 0.027678 7.42157 2.05147 -0.70728
293 3 2 -0.044235 5.34799 3.69157 -0.31320
294 3 2 -0.058306 4.10693 4.12368 -0.76615
295 3 2 -0.061493 2.96450 3.86126 -0.01909
296 3 2 -0.061741 3.06313 3.16674 1.18091
297 3 2 -0.061493 4.30419 2.73463 1.63386
298 3 2 -0.058306 5.44661 2.99705 0.88680
299 3 4 0.062038 4.03030 4.66331 -1.69853
300 3 4 0.061767 2.00023 4.19700 -0.37102
301 3 4 0.061758 2.17549 2.96284 1.76136
302 3 4 0.061767 4.38082 2.19500 2.56623
303 3 4 0.062038 6.41089 2.66131 1.23873
304 3 3 0.034915 6.32695 4.56033 -2.00720
305 3 3 0.027687 8.45882 4.97289 -0.83304
306 3 3 0.027687 7.76576 4.24577 0.64063
307 3 2 -0.044235 6.48788 6.87311 -1.09929
308 3 2 -0.058306 7.37587 7.18056 -2.12352
309 3 2 -0.061493 6.92077 7.82535 -3.26774
310 3 2 -0.061741 5.57767 8.16269 -3.38772
311 3 2 -0.061493 4.68968 7.85523 -2.36350
312 3 2 -0.058306 5.14478 7.21044 -1.21928
313 3 4 0.062038 8.41943 6.91846 -2.03029
314 3 4 0.061767 7.61072 8.06424 -4.06354
315 3 4 0.061758 5.22406 8.66367 -4.27675
316 3 4 0.061767 3.64612 8.11733 -2.45672
317 3 4 0.062038 4.45483 6.97156 -0.42348
318 3 3 0.034915 6.15145 6.00830 0.82987
319 3 3 0.027687 7.46366 7.91995 1.27900
320 3 3 0.027687 8.69651 7.44971 0.07912
321 3 2 -0.044235 7.83974 5.74533 2.89608
322 3 2 -0.058306 6.72943 6.45175 3.34360
323 3 2 -0.061493 5.83813 5.85733 4.22924
324 3 2 -0.061741 6.05714 4.55649 4.66735
325 3 2 -0.061493 7.16746 3.85007 4.21983
326 3 2 -0.058306 8.05875 4.44449 3.33420
327 3 4 0.062038 6.55926 7.46248 3.00320
328 3 4 0.061767 4.97544 6.40621 4.57695
329 3 4 0.061758 5.36462 4.09464 5.35547
330 3 4 0.061767 7.33763 2.83935 4.56024
331 3 4 0.062038 8.92144 3.89562 2.98648
332 3 3 0.034915 9.43247 5.62728 1.47059
333 3 3 0.027687 10.26874 6.74316 3.45579
334 3 3 0.027687 9.08445 8.05955 3.24296
335 3 2 -0.044235 11.40748 7.11525 0.95156
336 3 2 -0.058306 11.23366 7.20659 -0.42450
337 3 2 -0.061493 11.86594 6.29932 -1.26663
338 3 2 -0.061741 12.67203 5.30070 -0.73270
339 3 2 -0.061493 12.84584 5.20936 0.64336
340 3 2 -0.058306 12.21357 6.11663 1.48549
341 3 4 0.062038 10.60735 7.98249 -0.83935
342 3 4 0.061767 11.73088 6.37029 -2.33580
343 3 4 0.061758 13.16329 4.59577 -1.38702
344 3 4 0.061767 13.47216 4.43345 1.05821
345 3 4 0.062038 12.34862 6.04566 2.55466
346 3 3 0.034915 10.17423 8.83503 1.27434
347 3 3 0.027687 12.41646 9.39934 1.97446
348 3 3 0.027687 12.40013 8.09471 3.19036
349 3 2 -0.044235 10.26497 10.73716 3.01450
350 3 2 -0.058306 10.64889 11.40570 1.85788
351 3 2 -0.061493 9.75583 12.25773 1.21869
352 3 2 -0.061741 8.47884 12.44123 1.73611
353 3 2 -0.061493 8.09492 11.77270 2.89273
354 3 2 -0.058306 8.98798 10.92067 3.53193
355 3 4 0.062038 11.64108 11.26312 1.45585
356 3 4 0.061767 10.05412 12.77717 0.32002
357 3 4 0.061758 7.78494 13.10324 1.23947
358 3 4 0.061767 7.10273 11.91528 3.29476
359 3 4 0.062038 8.68969 10.40123 4.43059
360 3 3 0.034915 10.71291 9.23476 4.47220
361 3 3 0.027687 12.93341 11.10899 3.62986
362 3 3 0.027687 12.89880 10.01422 5.03735
363 3 2 -0.044244 10.76491 11.18927 6.25160
364 3 2 -0.058306 9.49409 11.73239 6.40042
365 3 2 -0.061493 8.60311 11.17675 7.31119
366 3 2 -0.061741 8.98294 10.07800 8.07314
367 3 2 -0.061493 10.25375 9.53488 7.92432
368 3 2 -0.058306 11.14474 10.09052 7.01355
369 3 4 0.062038 9.19897 12.58609 5.80840
370 3 4 0.061767 7.61571 11.59874 7.42682
371 3 4 0.061758 8.29066 9.64628 8.78080
372 3 4 0.061767 10.54887 8.68117 8.51634
373 3 4 0.062038 12.13214 9.66853 6.89792
374 3 3 0.034906 11.20701 12.49018 4.60997
375 3 3 0.027419 13.25842 11.89452 6.75748
376 3 3 0.027419 12.29546 13.38454 6.57510
377 3 2 -0.047337 13.27939 14.27036 4.32558
378 3 2 -0.058572 12.89807 14.00751 3.01501
379 3 2 -0.061501 12.33414 15.01425 2.24006
380 3 2 -0.061742 12.15153 16.28385 2.77568
381 3 2 -0.061501 12.53285 16.54670 4.08625
382 3 2 -0.058572 13.09678 15.53996 4.86120
383 3 4 0.062029 13.03995 13.02107 2.59884
384 3 4 0.061766 12.03786 14.81003 1.22177
385 3 4 0.061758 11.71336 17.06606 2.17355
386 3 4 0.061766 12.39097 17.53314 4.50241
387 3 4 0.062029 13.39306 15.74418 5.87949
388 3 3 0.031335 14.28475 12.39067 4.52246
389 3 3 0.023554 6.22964 0.05707 -3.80151
390 3 3 0.031335 14.72241 13.60349 5.72993
391 4 1 -0.058379 15.50774 -2.82782 14.13406
392 4 1 -0.018134 16.60628 -3.89276 14.13240
393 4 1 -0.039597 16.98293 -4.39612 12.73752
394 4 1 -0.014764 17.39335 -3.28785 11.76582
395 4 1 -0.039327 18.62562 -2.49660 12.20890
396 4 1 -0.014755 19.10707 -1.46862 11.18305
397 4 1 -0.039327 20.49261 -0.89272 11.48225
398 4 1 -0.014755 20.92217 0.22309 10.52761
399 4 1 -0.039327 22.22607 0.91653 10.92747
400 4 1 -0.014755 22.64034 2.05173 9.98906
401 4 1 -0.039327 23.88903 2.81025 10.44328
402 4 1 -0.014755 24.50117 3.70452 9.36324
403 4 1 -0.039335 25.62476 4.61133 9.86934
404 4 1 -0.015007 25.15077 5.72874 10.80080
405 4 1 -0.042196 26.28662 6.49603 11.48053
406 4 1 -0.027132 26.99326 5.71054 12.58712
407 4 3 0.023554 15.85529 -1.97790 13.54674
408 4 3 0.023554 14.61716 -3.25530 13.67338
409 4 2 -0.044513 16.12482 -5.07017 14.94603
410 4 2 -0.058315 16.81424 -5.45223 16.09095
411 4 2 -0.061493 16.37103 -6.53607 16.83992
412 4 2 -0.061741 15.23841 -7.23785 16.44398
413 4 2 -0.061493 14.54899 -6.85579 15.29906
414 4 2 -0.058315 14.99220 -5.77195 14.55009
415 4 4 0.062038 17.69426 -4.90696 16.39858
416 4 4 0.061767 16.90670 -6.83292 17.72950
417 4 4 0.061758 14.89405 -8.07997 17.02591
418 4 4 0.061767 13.66897 -7.40106 14.99142
419 4 4 0.062038 14.45653 -5.47510 13.66051
420 4 3 0.034630 17.49686 -3.46528 14.59308
421 4 3 0.027678 16.12166 -4.91616 12.31816
422 4 3 0.027678 17.81880 -5.08837 12.83857
423 4 2 -0.044235 17.69293 -3.91941 10.42736
424 4 2 -0.058306 18.89023 -4.59775 10.23135
425 4 2 -0.061493 19.16601 -5.17912 8.99926
426 4 2 -0.061741 18.24448 -5.08215 7.96317
427 4 2 -0.061493 17.04717 -4.40381 8.15918
428 4 2 -0.058306 16.77140 -3.82244 9.39127
429 4 4 0.062038 19.60624 -4.67310 11.03637
430 4 4 0.061767 20.09628 -5.70618 8.84697
431 4 4 0.061758 18.45875 -5.53386 7.00586
432 4 4 0.061767 16.33117 -4.32846 7.35416
433 4 4 0.062038 15.84112 -3.29538 9.54356
434 4 3 0.034915 16.55888 -2.59349 11.66776
435 4 3 0.027687 19.43642 -3.20171 12.39202
436 4 3 0.027687 18.37962 -1.96956 13.13075
437 4 2 -0.044235 18.11706 -0.32879 11.15524
438 4 2 -0.058306 18.02940 0.54213 12.23502
439 4 2 -0.061493 17.11807 1.59137 12.20942
440 4 2 -0.061741 16.29438 1.76969 11.10405
441 4 2 -0.061493 16.38203 0.89877 10.02428
442 4 2 -0.058306 17.29337 -0.15047 10.04987
443 4 4 0.062038 18.66939 0.40357 13.09387
444 4 4 0.061767 17.04996 2.26805 13.04838
445 4 4 0.061758 15.58629 2.58493 11.08416
446 4 4 0.061767 15.74205 1.03732 9.16543
447 4 4 0.062038 17.36148 -0.82716 9.21091
448 4 3 0.034915 19.14163 -1.95134 10.20638
449 4 3 0.027687 21.22063 -1.70093 11.41233
450 4 3 0.027687 20.48370 -0.49065 12.49535
451 4 2 -0.044235 21.10674 -0.37510 9.15349
452 4 2 -0.058306 22.07539 -1.34978 8.94418
453 4 2 -0.061493 22.24529 -1.90044 7.67927
454 4 2 -0.061741 21.44654 -1.47641 6.62366
455 4 2 -0.061493 20.47789 -0.50173 6.83297
456 4 2 -0.058306 20.30799 0.04893 8.09789
457 4 4 0.062038 22.69599 -1.67925 9.76436
458 4 4 0.061767 22.99791 -2.65775 7.51664
459 4 4 0.061758 21.57855 -1.90426 5.64085
460 4 4 0.061767 19.85728 -0.17227 6.01279
461 4 4 0.062038 19.55537 0.80624 8.26052
462 4 3 0.034915 20.13123 0.97262 10.50063
463 4 3 0.027687 23.02129 0.17109 10.93338
464 4 3 0.027687 22.10004 1.32968 11.92823
465 4 2 -0.044235 21.49654 3.03358 9.90077
466 4 2 -0.058306 20.96779 3.37503 8.66144
467 4 2 -0.061493 19.91489 4.27885 8.58016
468 4 2 -0.061741 19.39073 4.84122 9.73822
469 4 2 -0.061493 19.91948 4.49977 10.97755
470 4 2 -0.058306 20.97238 3.59595 11.05882
471 4 4 0.062038 21.37505 2.93807 7.76165
472 4 4 0.061767 19.50407 4.54414 7.61723
473 4 4 0.061758 18.57265 5.54347 9.67507
474 4 4 0.061767 19.51222 4.93672 11.87733
475 4 4 0.062038 21.38320 3.33065 12.02176
476 4 3 0.034915 22.83832 1.62632 9.00522
477 4 3 0.027687 24.63942 2.08090 10.74831
478 4 3 0.027687 23.61746 3.43750 11.29234
479 4 2 -0.044235 25.06188 2.81802 8.27705
480 4 2 -0.058306 26.05052 1.88893 8.57951
481 4 2 -0.061493 26.56668 1.07288 7.57963
482 4 2 -0.061741 26.09419 1.18592 6.27729
483 4 2 -0.061493 25.10555 2.11501 5.97484
484 4 2 -0.058306 24.58940 2.93106 6.97471
485 4 4 0.062038 26.41764 1.80110 9.59139
486 4 4 0.061767 27.33483 0.35100 7.81464
487 4 4 0.061758 26.49523 0.55187 5.50041
488 4 4 0.061767 24.73844 2.20284 4.96295
489 4 4 0.062038 23.82124 3.65294 6.73971
490 4 3 0.034915 23.71170 4.33500 8.95419
491 4 3 0.027687 26.10923 5.06856 9.00659
492 4 3 0.027687 26.34203 3.99569 10.41211
493 4 2 -0.044244 24.33788 6.70845 9.98871
494 4 2 -0.058306 24.96210 7.78670 9.37240
495 4 2 -0.061493 24.21381 8.68854 8.62484
496 4 2 -0.061741 22.84131 8.51215 8.49361
497 4 2 -0.061493 22.21709 7.43390 9.10992
498 4 2 -0.058306 22.96538 6.53205 9.85747
499 4 4 0.062038 26.02850 7.92375 9.47437
500 4 4 0.061767 24.69881 9.52632 8.14598
501 4 4 0.061758 22.25990 9.21286 7.91277
502 4 4 0.061767 21.15069 7.29685 9.00795
503 4 4 0.062038 22.48038 5.69428 10.33634
504 4 3 0.034906 24.52659 5.28492 11.57638
505 4 3 0.027419 25.87136 7.40388 11.91809
506 4 3 0.027419 27.02473 6.75621 10.72185
507 4 2 -0.047337 27.90746 6.65635 13.32860
508 4 2 -0.058572 29.28477 6.56118 13.16722
509 4 2 -0.061501 30.12631 7.43183 13.84977
510 4 2 -0.061742 29.59054 8.39765 14.69370
511 4 2 -0.061501 28.21323 8.49283 14.85509
512 4 2 -0.058572 27.37168 7.62218 14.17254
513 4 4 0.062029 29.70105 5.81075 12.51149
514 4 4 0.061766 31.19646 7.35788 13.72437
515 4 4 0.061758 30.24440 9.07413 15.22403
516 4 4 0.061766 27.79694 9.24325 15.51081
517 4 4 0.062029 26.30154 7.69613 14.29793
518 4 3 0.031335 27.58026 4.91852 12.12211
519 4 3 0.023554 15.23941 -2.46922 15.12779
520 4 3 0.031335 26.31577 5.25444 13.30898
521 5 1 -0.058379 22.99246 27.67400 22.12794
522 5 1 -0.018134 23.22192 26.17960 22.36246
523 5 1 -0.039597 24.41358 25.60485 21.59401
524 5 1 -0.014764 24.75113 24.15823 21.96040
525 5 1 -0.039327 25.23582 23.97784 23.40034
526 5 1 -0.014755 25.81884 22.59366 23.69193
527 5 1 -0.039327 26.21582 22.38103 25.15415
528 5 1 -0.014755 26.71530 20.96850 25.46429
529 5 1 -0.039327 27.83601 20.48785 24.54023
530 5 1 -0.014755 28.17673 19.00429 24.69476
531 5 1 -0.039327 27.09944 18.05926 24.15881
532 5 1 -0.014755 27.35975 16.58255 24.46289
533 5 1 -0.039335 26.36059 15.62677 23.80787
534 5 1 -0.015007 26.48505 14.17682 24.28013
535 5 1 -0.042196 25.68385 13.17844 23.44215
536 5 1 -0.027132 25.70950 11.74831 23.98527
537 5 3 0.023554 23.88942 28.20996 22.43830
538 5 3 0.023554 22.81930 27.82984 21.06312
539 5 2 -0.044513 21.97935 25.43713 21.93251
540 5 2 -0.058315 21.37230 24.53699 22.80047
541 5 2 -0.061493 20.22848 23.85353 22.40469
542 5 2 -0.061741 19.69170 24.07020 21.14095
543 5 2 -0.061493 20.29875 24.97033 20.27300
544 5 2 -0.058315 21.44257 25.65380 20.66878
545 5 4 0.062038 21.78936 24.36865 23.78236
546 5 4 0.061767 19.75681 23.15414 23.07907
547 5 4 0.061758 18.80297 23.53916 20.83344
548 5 4 0.061767 19.88168 25.13868 19.29110
549 5 4 0.062038 21.91424 26.35318 19.99439
550 5 3 0.034630 23.39508 26.02376 23.42727
551 5 3 0.027678 25.28618 26.22300 21.80512
552 5 3 0.027678 24.18347 25.64256 20.52924
553 5 2 -0.044235 25.83958 23.67665 21.03117
554 5 2 -0.058306 27.14175 24.13667 21.18870
555 5 2 -0.061493 28.14371 23.69337 20.33332
556 5 2 -0.061741 27.84348 22.79004 19.32042
557 5 2 -0.061493 26.54130 22.33002 19.16290
558 5 2 -0.058306 25.53935 22.77332 20.01827
559 5 4 0.062038 27.37502 24.83854 21.97570
560 5 4 0.061767 29.15547 24.05079 20.45571
561 5 4 0.061758 28.62197 22.44560 18.65581
562 5 4 0.061767 26.30803 21.62815 18.37589
563 5 4 0.062038 24.52759 22.41590 19.89588
564 5 3 0.034915 23.85473 23.55335 21.82361
565 5 3 0.027687 24.38965 24.13947 24.06816
566 5 3 0.027687 26.00801 24.72175 23.59635
567 5 2 -0.044235 24.78242 21.55764 23.32779
568 5 2 -0.058306 23.49505 21.65127 23.84355
569 5 2 -0.061493 22.54099 20.69759 23.50835
570 5 2 -0.061741 22.87430 19.65028 22.65738
571 5 2 -0.061493 24.16167 19.55665 22.14162
572 5 2 -0.058306 25.11573 20.51033 22.47682
573 5 4 0.062038 23.23607 22.46501 24.50473
574 5 4 0.061767 21.54073 20.77033 23.90909
575 5 4 0.061758 22.13302 18.90929 22.39694
576 5 4 0.061767 24.42064 18.74291 21.48043
577 5 4 0.062038 26.11598 20.43759 22.07608
578 5 3 0.034915 26.70693 22.46024 23.07419
579 5 3 0.027687 25.34351 22.57911 25.77700
580 5 3 0.027687 27.01102 23.08553 25.39792
581 5 2 -0.044235 27.23173 20.95037 26.88312
582 5 2 -0.058306 26.59551 20.17368 27.84442
583 5 2 -0.061493 27.07090 20.15699 29.15049
584 5 2 -0.061741 28.18249 20.91697 29.49527
585 5 2 -0.061493 28.81871 21.69366 28.53397
586 5 2 -0.058306 28.34332 21.71035 27.22790
587 5 4 0.062038 25.73183 19.58319 27.57653
588 5 4 0.061767 26.57657 19.55352 29.89740
589 5 4 0.061758 28.55185 20.90400 30.51006
590 5 4 0.061767 29.68239 22.28415 28.80186
591 5 4 0.062038 28.83765 22.31382 26.48099
592 5 3 0.034915 25.87522 20.28062 25.36850
593 5 3 0.027687 28.73199 21.06855 24.75956
594 5 3 0.027687 27.52677 20.66155 23.50956
595 5 2 -0.044235 29.45924 18.73302 23.94530
596 5 2 -0.058306 30.53268 18.13761 24.59746
597 5 2 -0.061493 31.71327 17.88790 23.90756
598 5 2 -0.061741 31.82041 18.23360 22.56550
599 5 2 -0.061493 30.74697 18.82901 21.91335
600 5 2 -0.058306 29.56638 19.07873 22.60325
601 5 4 0.062038 30.44943 17.86900 25.64021
602 5 4 0.061767 32.54731 17.42527 24.41427
603 5 4 0.061758 32.73770 18.03958 22.02947
604 5 4 0.061767 30.83022 19.09762 20.87060
605 5 4 0.062038 28.73234 19.54135 22.09654
606 5 3 0.034915 28.31762 18.79502 25.75517
607 5 3 0.027687 27.04619 18.18081 23.07692
608 5 3 0.027687 26.14649 18.33765 24.60881
609 5 2 -0.044235 27.28936 16.38814 25.95866
610 5 2 -0.058306 28.45481 16.18699 26.68898
611 5 2 -0.061493 28.39000 16.00803 28.06589
612 5 2 -0.061741 27.15975 16.03020 28.71248
613 5 2 -0.061493 25.99429 16.23135 27.98216
614 5 2 -0.058306 26.05910 16.41031 26.60525
615 5 4 0.062038 29.41069 16.16976 26.18660
616 5 4 0.061767 29.29553 15.85175 28.63333
617 5 4 0.061758 27.10940 15.89115 29.78230
618 5 4 0.061767 25.03841 16.24858 28.48454
619 5 4 0.062038 25.15357 16.56659 26.03781
620 5 3 0.034915 28.35799 16.33103 24.10461
621 5 3 0.027687 26.52222 15.64987 22.73017
622 5 3 0.027687 25.35372 15.97541 24.03760
623 5 2 -0.044244 27.94161 13.78320 24.21996
624 5 2 -0.058306 28.56805 13.26293 25.34646
625 5 2 -0.061493 29.90885 12.90060 25.29107
626 5 2 -0.061741 30.62321 13.05854 24.10919
627 5 2 -0.061493 29.99677 13.57881 22.98270
628 5 2 -0.058306 28.65597 13.94114 23.03808
629 5 4 0.062038 28.01301 13.14022 26.26476
630 5 4 0.061767 30.39558 12.49636 26.16634
631 5 4 0.061758 31.66498 12.77701 24.06616
632 5 4 0.061767 30.55181 13.70152 22.06440
633 5 4 0.062038 28.16924 14.34538 22.16282
634 5 3 0.034906 26.12995 14.12126 25.30917
635 5 3 0.027419 26.09869 13.16833 22.43423
636 5 3 0.027419 24.64703 13.51332 23.41117
637 5 2 -0.047337 25.03046 11.74236 25.33397
638 5 2 -0.058572 25.71687 11.29219 26.45570
639 5 2 -0.061501 25.09179 11.28671 27.69721
640 5 2 -0.061742 23.78031 11.73141 27.81699
641 5 2 -0.061501 23.09390 12.18159 26.69526
642 5 2 -0.058572 23.71897 12.18706 25.45375
643 5 4 0.062029 26.73586 10.94666 26.36263
644 5 4 0.061766 25.62512 10.93693 28.56877
645 5 4 0.061758 23.29464 11.72715 28.78162
646 5 4 0.061766 22.07490 12.52711 26.78832
647 5 4 0.062029 23.18564 12.53684 24.58219
648 5 3 0.031335 26.75021 11.44330 24.09471
649 5 3 0.023554 22.14350 28.08346 22.67539
650 5 3 0.031335 25.20635 11.02240 23.34652
651 6 1 -0.058379 17.98796 19.35870 -0.19113
652 6 1 -0.018134 16.86619 20.30043 -0.63345
653 6 1 -0.039597 16.30332 21.16991 0.49265
654 6 1 -0.014764 15.04923 21.95576 0.10455
655 6 1 -0.039327 14.50738 22.85304 1.21908
656 6 1 -0.014755 13.43860 23.84478 0.75532
657 6 1 -0.039327 12.95612 24.79730 1.85114
658 6 1 -0.014755 11.77919 25.68123 1.43348
659 6 1 -0.039327 11.26546 26.59928 2.54441
660 6 1 -0.014755 9.98130 27.35032 2.18697
661 6 1 -0.039327 8.87927 26.45933 1.61028
662 6 1 -0.014755 7.51631 27.14611 1.50271
663 6 1 -0.039335 6.45545 26.31387 0.77963
664 6 1 -0.015007 5.05658 26.93319 0.80241
665 6 1 -0.042196 4.56148 27.30079 2.20264
666 6 1 -0.027132 3.16685 27.92962 2.22442
667 6 3 0.023554 18.80075 19.96209 0.21309
668 6 3 0.023554 17.59560 18.70095 0.58445
669 6 2 -0.044513 15.74021 19.46454 -1.19343
670 6 2 -0.058315 15.37376 19.59657 -2.52774
671 6 2 -0.061493 14.33727 18.82711 -3.04322
672 6 2 -0.061741 13.66723 17.92563 -2.22439
673 6 2 -0.061493 14.03368 17.79361 -0.89008
674 6 2 -0.058315 15.07017 18.56307 -0.37460
675 6 4 0.062038 15.89437 20.29700 -3.16396
676 6 4 0.061767 14.05254 18.92968 -4.07995
677 6 4 0.061758 12.86190 17.32777 -2.62491
678 6 4 0.061767 13.51308 17.09318 -0.25387
679 6 4 0.062038 15.35490 18.46049 0.66213
680 6 3 0.034630 17.25854 20.95818 -1.40903
681 6 3 0.027678 17.07301 21.88132 0.79192
682 6 3 0.027678 16.05358 20.52139 1.33239
683 6 2 -0.044235 15.38524 22.82657 -1.08241
684 6 2 -0.058306 16.41175 23.75937 -0.99162
685 6 2 -0.061493 16.72106 24.56098 -2.08426
686 6 2 -0.061741 16.00384 24.42979 -3.26768
687 6 2 -0.061493 14.97733 23.49698 -3.35847
688 6 2 -0.058306 14.66803 22.69537 -2.26584
689 6 4 0.062038 16.96901 23.86131 -0.07213
690 6 4 0.061767 17.51863 25.28575 -2.01372
691 6 4 0.061758 16.24417 25.05262 -4.11664
692 6 4 0.061767 14.42007 23.39504 -4.27797
693 6 4 0.062038 13.87045 21.97060 -2.33638
694 6 3 0.034915 14.27093 21.24333 -0.16894
695 6 3 0.027687 15.33998 23.41901 1.63688
696 6 3 0.027687 14.07114 22.21603 1.98850
697 6 2 -0.044235 12.25016 23.05941 0.25440
698 6 2 -0.058306 11.87188 23.14687 -1.08028
699 6 2 -0.061493 10.77789 22.42392 -1.54139
700 6 2 -0.061741 10.06219 21.61351 -0.66783
701 6 2 -0.061493 10.44047 21.52605 0.66684
702 6 2 -0.058306 11.53446 22.24901 1.12796
703 6 4 0.062038 12.42797 23.77654 -1.75901
704 6 4 0.061767 10.48398 22.49187 -2.57840
705 6 4 0.061758 9.21218 21.05179 -1.02611
706 6 4 0.061767 9.88438 20.89638 1.34558
707 6 4 0.062038 11.82838 22.18105 2.16497
708 6 3 0.034915 13.85545 24.44120 -0.05623
709 6 3 0.027687 13.78709 25.44491 2.13075
710 6 3 0.027687 12.64752 24.20130 2.71000
711 6 2 -0.044235 12.22239 26.54266 0.27520
712 6 2 -0.058306 13.27720 27.43363 0.43539
713 6 2 -0.061493 13.68517 28.22661 -0.63083
714 6 2 -0.061741 13.03833 28.12862 -1.85725
715 6 2 -0.061493 11.98352 27.23766 -2.01744
716 6 2 -0.058306 11.57555 26.44468 -0.95121
717 6 4 0.062038 13.77977 27.50976 1.38830
718 6 4 0.061767 14.50473 28.91887 -0.50637
719 6 4 0.061758 13.35532 28.74475 -2.68569
720 6 4 0.061767 11.48095 27.16152 -2.97034
721 6 4 0.062038 10.75599 25.75242 -1.07568
722 6 3 0.034915 10.96041 25.03372 1.11975
723 6 3 0.027687 12.03997 27.33353 2.76598
724 6 3 0.027687 11.07047 25.99064 3.42738
725 6 2 -0.044235 9.45223 28.00564 3.44026
726 6 2 -0.058306 9.26183 29.38203 3.47756
727 6 2 -0.061493 8.77481 29.98527 4.63126
728 6 2 -0.061741 8.47819 29.21211 5.74766
729 6 2 -0.061493 8.66859 27.83572 5.71036
730 6 2 -0.058306 9.15561 27.23248 4.55666
731 6 4 0.062038 9.49230 29.98276 2.61014
732 6 4 0.061767 8.62687 31.05470 4.66024
733 6 4 0.061758 8.09978 29.68081 6.64405
734 6 4 0.061767 8.43812 27.23499 6.57778
735 6 4 0.062038 9.30355 26.16306 4.52768
736 6 3 0.034915 10.22620 28.11247 1.44720
737 6 3 0.027687 8.77230 25.58758 2.25581
738 6 3 0.027687 9.18253 26.14424 0.61185
739 6 2 -0.044235 7.69748 28.44096 0.74731
740 6 2 -0.058306 8.43119 28.46013 -0.43312
741 6 2 -0.061493 8.59796 29.65208 -1.12850
742 6 2 -0.061741 8.03103 30.82486 -0.64345
743 6 2 -0.061493 7.29733 30.80569 0.53698
744 6 2 -0.058306 7.13055 29.61374 1.23236
745 6 4 0.062038 8.87168 27.54890 -0.81000
746 6 4 0.061767 9.16803 29.66697 -2.04567
747 6 4 0.061758 8.16061 31.75097 -1.18374
748 6 4 0.061767 6.85683 31.71691 0.91386
749 6 4 0.062038 6.56048 29.59885 2.14953
750 6 3 0.034915 7.15829 27.35407 2.51102
751 6 3 0.027687 6.40375 25.33607 1.25852
752 6 3 0.027687 6.76140 26.19978 -0.26030
753 6 2 -0.044244 4.08958 25.93936 0.20464
754 6 2 -0.058306 3.33192 26.28921 -0.90696
755 6 2 -0.061493 2.44177 25.37437 -1.45723
756 6 2 -0.061741 2.30928 24.10968 -0.89590
757 6 2 -0.061493 3.06694 23.75982 0.21570
758 6 2 -0.058306 3.95709 24.67467 0.76597
759 6 4 0.062038 3.43486 27.27186 -1.34310
760 6 4 0.061767 1.85308 25.64620 -2.32092
761 6 4 0.061758 1.61766 23.39886 -1.32345
762 6 4 0.061767 2.96400 22.77718 0.65184
763 6 4 0.062038 4.54578 24.40284 1.62966
764 6 3 0.034906 5.07477 27.83992 0.19776
765 6 3 0.027419 5.26363 28.01235 2.63713
766 6 3 0.027419 4.53599 26.39275 2.80506
767 6 2 -0.047337 3.15657 29.09096 1.25939
768 6 2 -0.058572 3.95120 30.20489 1.50399
769 6 2 -0.061501 3.94174 31.27395 0.61566
770 6 2 -0.061742 3.13764 31.22907 -0.51727
771 6 2 -0.061501 2.34301 30.11515 -0.76186
772 6 2 -0.058572 2.35247 29.04609 0.12647
773 6 4 0.062029 4.57596 30.23975 2.38425
774 6 4 0.061766 4.55915 32.13944 0.80570
775 6 4 0.061758 3.13029 32.05971 -1.20748
776 6 4 0.061766 1.71825 30.08028 -1.64212
777 6 4 0.062029 1.73506 28.18059 -0.06358
778 6 3 0.031335 2.44763 27.17629 1.90297
779 6 3 0.023554 18.38896 18.73927 -0.99338
780 6 3 0.031335 2.86146 28.29710 3.20411
781 7 1 -0.058379 32.32520 29.28113 13.93823
782 7 1 -0.018134 31.62276 28.16218 13.16658
783 7 1 -0.039597 32.11330 27.99616 11.72689
784 7 1 -0.014764 31.47028 26.82489 10.98152
785 7 1 -0.039327 31.96786 26.65303 9.54494
786 7 1 -0.014755 31.39854 25.42488 8.83190
787 7 1 -0.039327 31.95047 25.21307 7.42073
788 7 1 -0.014755 31.40154 23.96982 6.71794
789 7 1 -0.039327 32.12312 23.62232 5.41430
790 7 1 -0.014755 31.80879 22.22233 4.88314
791 7 1 -0.039327 32.40949 21.09027 5.71891
792 7 1 -0.014755 32.25822 19.70407 5.08925
793 7 1 -0.039335 30.83392 19.37914 4.63463
794 7 1 -0.015007 30.69135 18.01094 3.96486
795 7 1 -0.042196 29.33235 17.78196 3.30033
796 7 1 -0.027132 28.14001 17.97471 4.23951
797 7 3 0.023554 33.39221 29.05999 13.96448
798 7 3 0.023554 32.15559 30.21907 13.40946
799 7 2 -0.044513 31.85773 26.86283 13.89909
800 7 2 -0.058315 33.14014 26.33279 13.98020
801 7 2 -0.061493 33.35643 25.13670 14.65450
802 7 2 -0.061741 32.29032 24.47065 15.24769
803 7 2 -0.061493 31.00791 25.00069 15.16658
804 7 2 -0.058315 30.79161 26.19678 14.49228
805 7 4 0.062038 33.96849 26.85030 13.51930
806 7 4 0.061767 34.35284 24.72487 14.71752
807 7 4 0.061758 32.45838 23.54131 15.77161
808 7 4 0.061767 30.17956 24.48318 15.62748
809 7 4 0.062038 29.79521 26.60861 14.42926
810 7 3 0.034630 30.55575 28.38332 13.14033
811 7 3 0.027678 33.19119 27.83576 11.74984
812 7 3 0.027678 31.88810 28.91273 11.18165
813 7 2 -0.044235 29.97801 27.05202 10.94118
814 7 2 -0.058306 29.12105 26.15299 11.56526
815 7 2 -0.061493 27.74737 26.36207 11.52813
816 7 2 -0.061741 27.23064 27.47017 10.86692
817 7 2 -0.061493 28.08759 28.36920 10.24284
818 7 2 -0.058306 29.46128 28.16012 10.27997
819 7 4 0.062038 29.52254 25.29202 12.07901
820 7 4 0.061767 27.08153 25.66354 12.01302
821 7 4 0.061758 26.16331 27.63261 10.83806
822 7 4 0.061767 27.68611 29.23017 9.72909
823 7 4 0.062038 30.12712 28.85865 9.79508
824 7 3 0.034915 31.68951 25.90917 11.53060
825 7 3 0.027687 33.05374 26.56133 9.56842
826 7 3 0.027687 31.68452 27.53930 8.97718
827 7 2 -0.044235 31.72823 24.20390 9.65689
828 7 2 -0.058306 33.04458 23.94615 10.02143
829 7 2 -0.061493 33.34808 22.82220 10.78085
830 7 2 -0.061741 32.33523 21.95600 11.17574
831 7 2 -0.061493 31.01888 22.21375 10.81120
832 7 2 -0.058306 30.71538 23.33770 10.05177
833 7 4 0.062038 33.83155 24.61916 9.71461
834 7 4 0.061767 34.37085 22.62193 11.06409
835 7 4 0.061758 32.57104 21.08271 11.76579
836 7 4 0.061767 30.23191 21.54074 11.11801
837 7 4 0.062038 29.69261 23.53797 9.76853
838 7 3 0.034915 30.31711 25.54174 8.76154
839 7 3 0.027687 33.03402 25.11624 7.48892
840 7 3 0.027687 31.69502 26.08576 6.81969
841 7 2 -0.044235 29.94441 24.20943 6.40259
842 7 2 -0.058306 28.96208 23.47251 7.05381
843 7 2 -0.061493 27.62075 23.69307 6.76353
844 7 2 -0.061741 27.26173 24.65055 5.82202
845 7 2 -0.061493 28.24405 25.38747 5.17080
846 7 2 -0.058306 29.58539 25.16691 5.46108
847 7 4 0.062038 29.24103 22.72856 7.78535
848 7 4 0.061767 26.85750 23.12050 7.26952
849 7 4 0.061758 26.21954 24.82192 5.59648
850 7 4 0.061767 27.96511 26.13141 4.43927
851 7 4 0.062038 30.34863 25.73948 4.95510
852 7 3 0.034915 31.49768 23.12306 7.39754
853 7 3 0.027687 33.19680 23.68749 5.59054
854 7 3 0.027687 31.82867 24.34885 4.65697
855 7 2 -0.044235 32.35528 22.11528 3.47958
856 7 2 -0.058306 33.72031 21.94995 3.27597
857 7 2 -0.061493 34.22337 21.85141 1.98394
858 7 2 -0.061741 33.36139 21.91820 0.89553
859 7 2 -0.061493 31.99636 22.08353 1.09914
860 7 2 -0.058306 31.49331 22.18207 2.39117
861 7 4 0.062038 34.39004 21.89805 4.12164
862 7 4 0.061767 35.28397 21.72295 1.82574
863 7 4 0.061758 33.75226 21.84164 -0.10834
864 7 4 0.061767 31.32663 22.13543 0.25347
865 7 4 0.062038 30.43271 22.31053 2.54937
866 7 3 0.034915 30.72601 22.09805 4.86808
867 7 3 0.027687 31.91199 21.08085 6.68871
868 7 3 0.027687 33.47265 21.29086 5.85146
869 7 2 -0.044235 32.67567 18.67278 6.11016
870 7 2 -0.058306 33.65001 17.73406 5.79145
871 7 2 -0.061493 34.03428 16.78473 6.73124
872 7 2 -0.061741 33.44421 16.77410 7.98973
873 7 2 -0.061493 32.46987 17.71281 8.30844
874 7 2 -0.058306 32.08560 18.66215 7.36866
875 7 4 0.062038 34.10848 17.74232 4.81363
876 7 4 0.061767 34.79133 16.05537 6.48360
877 7 4 0.061758 33.74278 16.03648 8.71992
878 7 4 0.061767 32.01139 17.70455 9.28626
879 7 4 0.062038 31.32855 19.39151 7.61629
880 7 3 0.034915 32.91450 19.65021 4.22063
881 7 3 0.027687 30.52047 20.14229 3.92226
882 7 3 0.027687 30.18322 19.40078 5.50882
883 7 2 -0.044244 31.76177 17.88841 2.90691
884 7 2 -0.058306 32.60206 16.78124 2.89336
885 7 2 -0.061493 33.58742 16.66845 1.91948
886 7 2 -0.061741 33.73249 17.66284 0.95915
887 7 2 -0.061493 32.89221 18.77002 0.97269
888 7 2 -0.058306 31.90685 18.88280 1.94657
889 7 4 0.062038 32.48934 16.00862 3.63952
890 7 4 0.061767 34.24030 15.80820 1.90896
891 7 4 0.061758 34.49810 17.57521 0.20246
892 7 4 0.061767 33.00493 19.54263 0.22653
893 7 4 0.062038 31.25396 19.74305 1.95709
894 7 3 0.034906 30.83368 17.24243 4.72462
895 7 3 0.027419 29.30593 16.76072 2.92023
896 7 3 0.027419 29.23341 18.48596 2.47407
897 7 2 -0.047337 26.87386 17.87723 3.42253
898 7 2 -0.058572 26.13772 16.69817 3.41952
899 7 2 -0.061501 24.97219 16.60844 2.66747
900 7 2 -0.061742 24.54280 17.69777 1.91842
901 7 2 -0.061501 25.27893 18.87684 1.92143
902 7 2 -0.058572 26.44446 18.96657 2.67349
903 7 4 0.062029 26.47135 15.85178 4.00151
904 7 4 0.061766 24.40023 15.69233 2.66513
905 7 4 0.061758 23.63721 17.62806 1.33409
906 7 4 0.061766 24.94530 19.72323 1.33944
907 7 4 0.062029 27.01642 19.88268 2.67583
908 7 3 0.031335 28.21488 18.96563 4.68736
909 7 3 0.023554 31.97573 29.39941 14.96389
910 7 3 0.031335 28.08526 17.24019 5.04299
911 8 1 -0.058379 28.47536 30.27999 22.81557
912 8 1 -0.018134 28.73653 31.59689 23.54937
913 8 1 -0.039597 30.04772 32.27963 23.15495
914 8 1 -0.014764 30.01702 32.93456 21.77255
915 8 1 -0.039327 31.37998 33.43599 21.29109
916 8 1 -0.014755 32.45915 32.35260 21.24018
917 8 1 -0.039327 32.13258 31.19277 20.29729
918 8 1 -0.014755 33.28799 30.21022 20.09595
919 8 1 -0.039327 33.88358 29.67444 21.39945
920 8 1 -0.014755 34.98505 28.63180 21.19805
921 8 1 -0.039327 35.76580 28.29758 22.47069
922 8 1 -0.014755 34.88213 27.93094 23.66468
923 8 1 -0.039335 35.66196 27.61971 24.94370
924 8 1 -0.015007 36.63289 28.72458 25.36498
925 8 1 -0.042196 37.52575 28.35001 26.54963
926 8 1 -0.027132 38.40465 29.49657 27.05346
927 8 3 0.023554 28.44479 30.48563 21.74558
928 8 3 0.023554 29.29577 29.59732 23.03689
929 8 2 -0.044513 28.77888 31.31202 25.03164
930 8 2 -0.058315 27.64150 31.50000 25.80826
931 8 2 -0.061493 27.68049 31.23777 27.17275
932 8 2 -0.061741 28.85684 30.78755 27.76061
933 8 2 -0.061493 29.99422 30.59957 26.98399
934 8 2 -0.058315 29.95524 30.86180 25.61951
935 8 4 0.062038 26.72750 31.84981 25.35151
936 8 4 0.061767 26.79677 31.38383 27.77616
937 8 4 0.061758 28.88713 30.58380 28.82078
938 8 4 0.061767 30.90822 30.24975 27.44075
939 8 4 0.062038 30.83896 30.71574 25.01609
940 8 3 0.034630 27.91612 32.27957 23.32805
941 8 3 0.027678 30.83827 31.52922 23.15973
942 8 3 0.027678 30.26658 33.05096 23.89336
943 8 2 -0.044235 29.07261 34.11148 21.82767
944 8 2 -0.058306 27.98951 34.17473 20.95876
945 8 2 -0.061493 27.12015 35.25812 21.00949
946 8 2 -0.061741 27.33388 36.27826 21.92913
947 8 2 -0.061493 28.41697 36.21500 22.79804
948 8 2 -0.058306 29.28634 35.13161 22.74731
949 8 4 0.062038 27.82344 33.38211 20.24422
950 8 4 0.061767 26.27860 35.30727 20.33437
951 8 4 0.061758 26.65840 37.12003 21.96855
952 8 4 0.061767 28.58304 37.00763 23.51258
953 8 4 0.062038 30.12788 35.08247 23.42243
954 8 3 0.034915 29.65041 32.20046 21.05506
955 8 3 0.027687 31.71487 34.21978 21.97052
956 8 3 0.027687 31.25858 33.84433 20.28779
957 8 2 -0.044235 33.74756 32.98983 20.77755
958 8 2 -0.058306 33.92063 33.31344 19.43687
959 8 2 -0.061493 35.10666 33.90002 19.01099
960 8 2 -0.061741 36.11961 34.16299 19.92580
961 8 2 -0.061493 35.94654 33.83938 21.26648
962 8 2 -0.058306 34.76051 33.25280 21.69235
963 8 4 0.062038 33.13359 33.10911 18.72608
964 8 4 0.061767 35.24113 34.15146 17.96931
965 8 4 0.061758 37.04112 34.61876 19.59491
966 8 4 0.061767 36.73358 34.04370 21.97727
967 8 4 0.062038 34.62604 33.00136 22.73403
968 8 3 0.034915 32.58652 31.95013 22.24512
969 8 3 0.027687 31.86413 31.60778 19.32580
970 8 3 0.027687 31.28626 30.64440 20.71097
971 8 2 -0.044235 32.77751 29.03817 19.29232
972 8 2 -0.058306 33.25181 28.81942 18.00419
973 8 2 -0.061493 32.78190 27.74051 17.26443
974 8 2 -0.061741 31.83770 26.88035 17.81280
975 8 2 -0.061493 31.36340 27.09911 19.10093
976 8 2 -0.058306 31.83331 28.17801 19.84070
977 8 4 0.062038 33.98543 29.48774 17.57811
978 8 4 0.061767 33.15042 27.57054 16.26357
979 8 4 0.061758 31.47259 26.04207 17.23802
980 8 4 0.061767 30.62978 26.43078 19.52701
981 8 4 0.062038 31.46479 28.34798 20.84155
982 8 3 0.034915 34.07758 30.72019 19.54407
983 8 3 0.027687 33.08160 29.21637 21.97832
984 8 3 0.027687 34.30503 30.51379 21.95259
985 8 2 -0.044235 35.95754 29.16326 20.17242
986 8 2 -0.058306 36.17899 28.45941 18.99443
987 8 2 -0.061493 37.07420 28.94864 18.05032
988 8 2 -0.061741 37.74796 30.14172 18.28419
989 8 2 -0.061493 37.52652 30.84557 19.46218
990 8 2 -0.058306 36.63131 30.35634 20.40630
991 8 4 0.062038 35.65548 27.53241 18.81272
992 8 4 0.061767 37.24625 28.40177 17.13505
993 8 4 0.061758 38.44352 30.52185 17.55063
994 8 4 0.061767 38.05002 31.77257 19.64390
995 8 4 0.062038 36.45925 30.90322 21.32157
996 8 3 0.034915 34.52430 27.71526 20.82958
997 8 3 0.027687 36.36364 29.16744 22.74279
998 8 3 0.027687 36.41998 27.45212 22.25776
999 8 2 -0.044235 34.07162 26.71131 23.29633
1000 8 2 -0.058306 32.68291 26.76983 23.30921
1001 8 2 -0.061493 31.93681 25.64712 22.97014
1002 8 2 -0.061741 32.57942 24.46590 22.61820
1003 8 2 -0.061493 33.96812 24.40738 22.60532
1004 8 2 -0.058306 34.71423 25.53008 22.94439
1005 8 4 0.062038 32.18362 27.68762 23.58266
1006 8 4 0.061767 30.85781 25.69259 22.98014
1007 8 4 0.061758 31.99971 23.59358 22.35475
1008 8 4 0.061767 34.46742 23.48959 22.33187
1009 8 4 0.062038 35.79322 25.48462 22.93439
1010 8 3 0.034915 34.21587 28.76964 23.86659
1011 8 3 0.027687 36.23402 26.70627 24.78103
1012 8 3 0.027687 34.94615 27.46794 25.75159
1013 8 2 -0.044244 35.82632 29.94256 25.74718
1014 8 2 -0.058306 35.88507 31.08903 24.96343
1015 8 2 -0.061493 35.14260 32.21022 25.31525
1016 8 2 -0.061741 34.34139 32.18494 26.45082
1017 8 2 -0.061493 34.28264 31.03847 27.23457
1018 8 2 -0.058306 35.02511 29.91728 26.88275
1019 8 4 0.062038 36.50759 31.10867 24.08112
1020 8 4 0.061767 35.18825 33.10100 24.70629
1021 8 4 0.061758 33.76451 33.05608 26.72418
1022 8 4 0.061767 33.66011 31.01883 28.11688
1023 8 4 0.062038 34.97946 29.02650 27.49170
1024 8 3 0.034906 37.27383 28.95824 24.51487
1025 8 3 0.027419 38.17607 27.53131 26.24155
1026 8 3 0.027419 36.88593 28.02448 27.36985
1027 8 2 -0.047337 39.41083 29.82907 25.97775
1028 8 2 -0.058572 39.46915 31.11543 25.45432
1029 8 2 -0.061501 40.39537 31.42150 24.46410
1030 8 2 -0.061742 41.26327 30.44122 23.99731
1031 8 2 -0.061501 41.20496 29.15486 24.52074
1032 8 2 -0.058572 40.27873 28.84878 25.51096
1033 8 4 0.062029 38.79481 31.87708 25.81701
1034 8 4 0.061766 40.44069 32.42097 24.05741
1035 8 4 0.061758 41.98293 30.67903 23.22794
1036 8 4 0.061766 41.87930 28.39320 24.15806
1037 8 4 0.062029 40.23342 27.84931 25.91766
1038 8 3 0.031335 37.76575 30.35962 27.24068
1039 8 3 0.023554 27.54124 29.79360 23.09656
1040 8 3 0.031335 38.94801 29.26870 27.97049
1041 9 1 -0.058379 12.62337 17.96107 25.73238
1042 9 1 -0.018134 11.11261 17.72363 25.77867
1043 9 1 -0.039597 10.62454 16.63287 24.82320
1044 9 1 -0.014764 9.18158 16.18859 25.07097
1045 9 1 -0.039327 8.57722 15.37080 23.92779
1046 9 1 -0.014755 7.19403 14.79508 24.23800
1047 9 1 -0.039327 6.54564 14.06454 23.06037
1048 9 1 -0.014755 6.56813 14.85379 21.74985
1049 9 1 -0.039327 6.07415 16.29570 21.88324
1050 9 1 -0.014755 5.97035 17.04356 20.55251
1051 9 1 -0.039327 7.31087 17.23591 19.84055
1052 9 1 -0.014755 7.21861 18.05287 18.55021
1053 9 1 -0.039335 8.51647 18.08632 17.74069
1054 9 1 -0.015007 9.74516 18.50296 18.55164
1055 9 1 -0.042196 10.95445 18.88656 17.69643
1056 9 1 -0.027132 12.25812 19.01952 18.48616
1057 9 3 0.023554 13.12367 17.02880 25.99441
1058 9 3 0.023554 12.89235 18.25147 24.71679
1059 9 2 -0.044513 10.73998 17.32134 27.18559
1060 9 2 -0.058315 10.82893 15.98977 27.57433
1061 9 2 -0.061493 10.48591 15.61946 28.86943
1062 9 2 -0.061741 10.05395 16.58071 29.77580
1063 9 2 -0.061493 9.96500 17.91228 29.38706
1064 9 2 -0.058315 10.30802 18.28259 28.09195
1065 9 4 0.062038 11.16456 15.24290 26.87010
1066 9 4 0.061767 10.55502 14.58486 29.17148
1067 9 4 0.061758 9.78743 16.29298 30.78207
1068 9 4 0.061767 9.62938 18.65915 30.09129
1069 9 4 0.062038 10.23891 19.31719 27.78991
1070 9 3 0.034630 10.61231 18.65590 25.51663
1071 9 3 0.027678 11.27339 15.76439 24.93652
1072 9 3 0.027678 10.69397 17.01504 23.80476
1073 9 2 -0.044235 8.33420 17.42259 25.26917
1074 9 2 -0.058306 7.47562 17.50843 26.35893
1075 9 2 -0.061493 6.69558 18.64436 26.54137
1076 9 2 -0.061741 6.77411 19.69446 25.63405
1077 9 2 -0.061493 7.63269 19.60862 24.54429
1078 9 2 -0.058306 8.41273 18.47269 24.36185
1079 9 4 0.062038 7.41460 16.69252 27.06390
1080 9 4 0.061767 6.02848 18.71106 27.38809
1081 9 4 0.061758 6.16804 20.57706 25.77581
1082 9 4 0.061767 7.69371 20.42452 23.83932
1083 9 4 0.062038 9.07983 18.40599 23.51513
1084 9 3 0.034915 9.16245 15.57878 25.97423
1085 9 3 0.027687 9.25038 14.54222 23.70774
1086 9 3 0.027687 8.48993 16.01729 23.05456
1087 9 2 -0.044235 7.33373 13.81862 25.38129
1088 9 2 -0.058306 6.55270 13.96713 26.52148
1089 9 2 -0.061493 6.68130 13.06828 27.57392
1090 9 2 -0.061741 7.59092 12.02090 27.48616
1091 9 2 -0.061493 8.37194 11.87239 26.34596
1092 9 2 -0.058306 8.24335 12.77125 25.29353
1093 9 4 0.062038 5.84595 14.78092 26.58967
1094 9 4 0.061767 6.07446 13.18367 28.45982
1095 9 4 0.061758 7.69083 11.32251 28.30388
1096 9 4 0.061767 9.07870 11.05860 26.27778
1097 9 4 0.062038 8.85019 12.65586 24.40763
1098 9 3 0.034915 6.54046 15.61640 24.53189
1099 9 3 0.027687 5.50653 13.85829 23.31690
1100 9 3 0.027687 7.08010 13.12755 22.90382
1101 9 2 -0.044235 5.68485 14.14151 20.75358
1102 9 2 -0.058306 6.25202 13.33343 19.77510
1103 9 2 -0.061493 5.43893 12.67776 18.85799
1104 9 2 -0.061741 4.05867 12.83016 18.91937
1105 9 2 -0.061493 3.49150 13.63824 19.89785
1106 9 2 -0.058306 4.30459 14.29392 20.81496
1107 9 4 0.062038 7.32444 13.21502 19.72741
1108 9 4 0.061767 5.87961 12.04989 18.09774
1109 9 4 0.061758 3.42692 12.32071 18.20680
1110 9 4 0.061767 2.41908 13.75666 19.94554
1111 9 4 0.062038 3.86391 14.92178 21.57521
1112 9 3 0.034915 7.59423 14.87702 21.38288
1113 9 3 0.027687 6.76909 16.83662 22.52554
1114 9 3 0.027687 5.08570 16.27686 22.34227
1115 9 2 -0.044235 5.37752 18.40617 20.82077
1116 9 2 -0.058306 6.15393 19.39862 21.40755
1117 9 2 -0.061493 5.60822 20.65294 21.65449
1118 9 2 -0.061741 4.28609 20.91481 21.31465
1119 9 2 -0.061493 3.50967 19.92235 20.72787
1120 9 2 -0.058306 4.05539 18.66803 20.48093
1121 9 4 0.062038 7.18120 19.19516 21.67160
1122 9 4 0.061767 6.21148 21.42406 22.11041
1123 9 4 0.061758 3.86208 21.88938 21.50651
1124 9 4 0.061767 2.48240 20.12581 20.46382
1125 9 4 0.062038 3.45213 17.89692 20.02501
1126 9 3 0.034915 5.31182 16.47784 19.89342
1127 9 3 0.027687 7.71071 16.25232 19.59401
1128 9 3 0.027687 7.98881 17.74964 20.52214
1129 9 2 -0.044235 6.13719 17.45058 17.68541
1130 9 2 -0.058306 6.12472 16.08241 17.44037
1131 9 2 -0.061493 5.12924 15.52797 16.64429
1132 9 2 -0.061741 4.14624 16.34172 16.09326
1133 9 2 -0.061493 4.15872 17.70989 16.33830
1134 9 2 -0.058306 5.15420 18.26432 17.13438
1135 9 4 0.062038 6.88848 15.45014 17.86851
1136 9 4 0.061767 5.11955 14.46493 16.45390
1137 9 4 0.061758 3.37278 15.91094 15.47473
1138 9 4 0.061767 3.39495 18.34215 15.91016
1139 9 4 0.062038 5.16389 19.32736 17.32477
1140 9 3 0.034915 6.95354 19.07703 18.81280
1141 9 3 0.027687 8.39054 18.79583 16.92287
1142 9 3 0.027687 8.69444 17.08856 17.33956
1143 9 2 -0.044244 9.36975 19.69367 19.40099
1144 9 2 -0.058306 9.53011 19.64142 20.78071
1145 9 2 -0.061493 9.18453 20.73750 21.56256
1146 9 2 -0.061741 8.67858 21.88583 20.96468
1147 9 2 -0.061493 8.51822 21.93807 19.58495
1148 9 2 -0.058306 8.86380 20.84199 18.80310
1149 9 4 0.062038 9.92322 18.74919 21.24526
1150 9 4 0.061767 9.30913 20.69690 22.63458
1151 9 4 0.061758 8.41007 22.73746 21.57216
1152 9 4 0.061767 8.12511 22.83030 19.12041
1153 9 4 0.062038 8.73920 20.88259 17.73108
1154 9 3 0.034906 10.03075 17.66831 19.19186
1155 9 3 0.027419 10.74522 19.84395 17.21923
1156 9 3 0.027419 11.09268 18.11770 16.93627
1157 9 2 -0.047337 13.27139 19.71894 17.61198
1158 9 2 -0.058572 13.92757 20.85199 18.07862
1159 9 2 -0.061501 14.86031 21.49583 17.27391
1160 9 2 -0.061742 15.13688 21.00663 16.00257
1161 9 2 -0.061501 14.48070 19.87359 15.53594
1162 9 2 -0.058572 13.54795 19.22975 16.34065
1163 9 4 0.062029 13.71268 21.23208 19.06642
1164 9 4 0.061766 15.37015 22.37618 17.63647
1165 9 4 0.061758 15.86160 21.50688 15.37733
1166 9 4 0.061766 14.69558 19.49349 14.54814
1167 9 4 0.062029 13.03811 18.34940 15.97809
1168 9 3 0.031335 12.05971 19.61988 19.37402
1169 9 3 0.023554 12.97108 18.73815 26.41307
1170 9 3 0.031335 12.68206 18.06748 18.80554
1171 10 1 -0.058379 18.86166 13.48168 17.23559
1172 10 1 -0.018134 18.98594 15.00628 17.26808
1173 10 1 -0.039597 20.42899 15.51380 17.23786
1174 10 1 -0.014764 21.20737 15.25353 18.52910
1175 10 1 -0.039327 22.60593 15.87366 18.54840
1176 10 1 -0.014755 23.47509 15.48615 17.35036
1177 10 1 -0.039327 24.88901 16.06917 17.39283
1178 10 1 -0.014755 24.95180 17.57085 17.10662
1179 10 1 -0.039327 24.64584 17.94081 15.65389
1180 10 1 -0.014755 24.41418 19.43622 15.42810
1181 10 1 -0.039327 24.19086 19.81714 13.96320
1182 10 1 -0.014755 23.77052 21.27361 13.75605
1183 10 1 -0.039335 24.64978 22.28590 14.49296
1184 10 1 -0.015007 24.39095 23.74055 14.09560
1185 10 1 -0.042196 25.28449 24.75125 14.81738
1186 10 1 -0.027132 25.18265 26.17561 14.26808
1187 10 3 0.023554 19.33158 13.12026 16.32091
1188 10 3 0.023554 19.38375 13.07803 18.10311
1189 10 2 -0.044513 18.26267 15.56546 16.06629
1190 10 2 -0.058315 18.87266 15.54715 14.81742
1191 10 2 -0.061493 18.20687 16.06190 13.71114
1192 10 2 -0.061741 16.93109 16.59495 13.85372
1193 10 2 -0.061493 16.32110 16.61326 15.10259
1194 10 2 -0.058315 16.98689 16.09851 16.20888
1195 10 4 0.062038 19.86392 15.13298 14.70664
1196 10 4 0.061767 18.68083 16.04767 12.74080
1197 10 4 0.061758 16.41379 16.99490 12.99417
1198 10 4 0.061767 15.32984 17.02743 15.21338
1199 10 4 0.062038 16.51293 16.11274 17.17922
1200 10 3 0.034630 18.51601 15.36770 18.18276
1201 10 3 0.027678 20.40900 16.58937 17.06220
1202 10 3 0.027678 20.94897 15.01580 16.41950
1203 10 2 -0.044235 20.41878 15.82929 19.68093
1204 10 2 -0.058306 20.31126 17.20712 19.82970
1205 10 2 -0.061493 19.58533 17.73713 20.88999
1206 10 2 -0.061741 18.96693 16.88931 21.80152
1207 10 2 -0.061493 19.07445 15.51148 21.65275
1208 10 2 -0.058306 19.80037 14.98147 20.59245
1209 10 4 0.062038 20.79174 17.86585 19.12146
1210 10 4 0.061767 19.50179 18.80767 21.00558
1211 10 4 0.061758 18.40290 17.30111 22.62535
1212 10 4 0.061767 18.59396 14.85274 22.36099
1213 10 4 0.062038 19.88391 13.91093 20.47686
1214 10 3 0.034915 21.31010 14.17564 18.65442
1215 10 3 0.027687 23.11172 15.54698 19.45700
1216 10 3 0.027687 22.49836 16.95832 18.55552
1217 10 2 -0.044235 23.58522 13.98063 17.31324
1218 10 2 -0.058306 23.27311 13.28946 16.14835
1219 10 2 -0.061493 23.37449 11.90358 16.11418
1220 10 2 -0.061741 23.78798 11.20888 17.24489
1221 10 2 -0.061493 24.10009 11.90005 18.40978
1222 10 2 -0.058306 23.99871 13.28593 18.44396
1223 10 4 0.062038 22.95184 13.82922 15.26981
1224 10 4 0.061767 23.13199 11.36655 15.20909
1225 10 4 0.061758 23.86675 10.13208 17.21834
1226 10 4 0.061767 24.42136 11.36028 19.28833
1227 10 4 0.062038 24.24121 13.82296 19.34905
1228 10 3 0.034915 22.98580 15.84286 16.44402
1229 10 3 0.027687 25.49336 15.55379 16.64634
1230 10 3 0.027687 25.30102 15.89350 18.38655
1231 10 2 -0.044235 26.34295 18.05724 17.43559
1232 10 2 -0.058306 27.42238 17.65299 16.65873
1233 10 2 -0.061493 28.70297 18.10073 16.96156
1234 10 2 -0.061741 28.90414 18.95273 18.04126
1235 10 2 -0.061493 27.82471 19.35698 18.81812
1236 10 2 -0.058306 26.54411 18.90924 18.51529
1237 10 4 0.062038 27.26607 16.99101 15.81983
1238 10 4 0.061767 29.54166 17.78664 16.35796
1239 10 4 0.061758 29.89913 19.30061 18.27655
1240 10 4 0.061767 27.98101 20.01896 19.65702
1241 10 4 0.062038 25.70542 19.22333 19.11889
1242 10 3 0.034915 24.22497 18.07105 17.74663
1243 10 3 0.027687 23.74686 17.40598 15.34747
1244 10 3 0.027687 25.48893 17.62903 15.03737
1245 10 2 -0.044235 23.19408 19.85000 16.21565
1246 10 2 -0.058306 21.92333 19.57673 15.72310
1247 10 2 -0.061493 20.80019 19.95763 16.44807
1248 10 2 -0.061741 20.94781 20.61180 17.66560
1249 10 2 -0.061493 22.21856 20.88507 18.15815
1250 10 2 -0.058306 23.34170 20.50417 17.43318
1251 10 4 0.062038 21.80863 19.06845 14.77711
1252 10 4 0.061767 19.81285 19.74531 16.06536
1253 10 4 0.061758 20.07516 20.90775 18.22888
1254 10 4 0.061767 22.33326 21.39335 19.10414
1255 10 4 0.062038 24.32905 20.71649 17.81589
1256 10 3 0.034915 25.28864 19.97587 15.79168
1257 10 3 0.027687 23.40819 19.17514 13.55901
1258 10 3 0.027687 25.12173 19.65008 13.42128
1259 10 2 -0.044235 23.83451 21.57875 12.27858
1260 10 2 -0.058306 25.06665 21.71303 11.64938
1261 10 2 -0.061493 25.12555 21.99393 10.28933
1262 10 2 -0.061741 23.95232 22.14055 9.55849
1263 10 2 -0.061493 22.72018 22.00627 10.18770
1264 10 2 -0.058306 22.66127 21.72537 11.54775
1265 10 4 0.062038 25.97822 21.59911 12.21722
1266 10 4 0.061767 26.08290 22.09826 9.80045
1267 10 4 0.061758 23.99808 22.35880 8.50176
1268 10 4 0.061767 21.80860 22.12019 9.61985
1269 10 4 0.062038 21.70393 21.62104 12.03663
1270 10 3 0.034915 22.74673 21.38745 14.11240
1271 10 3 0.027687 25.69256 22.05337 14.27698
1272 10 3 0.027687 24.46312 22.18568 15.56217
1273 10 2 -0.044244 22.95201 24.06905 14.41445
1274 10 2 -0.058306 22.09532 24.49133 13.40457
1275 10 2 -0.061493 20.77074 24.79372 13.69808
1276 10 2 -0.061741 20.30285 24.67383 15.00146
1277 10 2 -0.061493 21.15955 24.25155 16.01134
1278 10 2 -0.058306 22.48413 23.94916 15.71783
1279 10 4 0.062038 22.45885 24.58448 12.39187
1280 10 4 0.061767 20.10510 25.12182 12.91343
1281 10 4 0.061758 19.27368 24.90878 15.22951
1282 10 4 0.061767 20.79601 24.15840 17.02404
1283 10 4 0.062038 23.14976 23.62106 16.50249
1284 10 3 0.034906 24.56279 23.83738 13.02360
1285 10 3 0.027419 26.31906 24.42166 14.72182
1286 10 3 0.027419 24.99867 24.76969 15.86908
1287 10 2 -0.047337 25.96759 27.09046 15.17748
1288 10 2 -0.058572 27.35394 27.00138 15.22450
1289 10 2 -0.061501 28.07650 27.84352 16.06163
1290 10 2 -0.061742 27.41271 28.77476 16.85175
1291 10 2 -0.061501 26.02637 28.86385 16.80474
1292 10 2 -0.058572 25.30381 28.02170 15.96760
1293 10 4 0.062029 27.86968 26.27782 14.61059
1294 10 4 0.061766 29.15366 27.77430 16.09816
1295 10 4 0.061758 27.97412 29.42909 17.50219
1296 10 4 0.061766 25.51062 29.58740 17.41864
1297 10 4 0.062029 24.22665 28.09092 15.93107
1298 10 3 0.031335 24.13241 26.46733 14.26832
1299 10 3 0.023554 17.83360 13.12011 17.25712
1300 10 3 0.031335 25.56813 26.28863 13.25480
