1300
Lattice="33 0 0 0 33 0 0 0 33" Properties=species:S:1:pos:R:3
C 20.0725 0.986989 30.4209
C 18.6394 1.21159 30.9074
C 17.6691 1.64447 29.8065
C 17.8613 3.08896 29.3402
C 16.8196 3.55824 28.3226
C 16.9831 5.01742 27.8925
C 15.8479 5.53631 27.0077
C 16.0394 6.97754 26.5311
C 14.8401 7.54575 25.7697
C 15.0956 8.91638 25.1396
C 13.8714 9.52242 24.4504
C 14.0995 10.9334 23.9045
C 12.8332 11.6067 23.3715
C 12.3508 11.0515 22.0299
C 10.997 11.6033 21.5787
C 10.3635 10.8285 20.4215
H 20.0556 0.21059 29.6561
H 20.4375 1.92006 29.9917
C 18.1338 -0.081017 31.5021
C 17.5578 -1.04464 30.6824
C 17.0923 -2.23452 31.2298
C 17.2029 -2.46078 32.5968
C 17.7789 -1.49716 33.4164
C 18.2443 -0.307279 32.8691
H 17.4719 -0.868836 29.6203
H 16.6448 -2.98323 30.593
H 16.8412 -3.38529 33.0221
H 17.8647 -1.67296 34.4786
H 18.6918 0.441433 33.5059
H 18.6562 1.98799 31.6723
H 16.6529 1.54087 30.1869
H 17.8109 0.987106 28.9486
C 17.7815 3.99064 30.5488
C 16.6107 4.04973 31.2957
C 16.5372 4.87976 32.4083
C 17.6345 5.65069 32.7739
C 18.8053 5.5916 32.027
C 18.8788 4.76157 30.9144
H 15.7581 3.45074 31.0116
H 15.6275 4.92567 32.9886
H 17.5774 6.2956 33.6383
H 19.6579 6.19059 32.3111
H 19.7885 4.71566 30.3341
H 18.8471 3.17166 28.8825
H 15.8313 3.4421 28.7674
H 16.9014 2.92974 27.4358
C 18.2767 5.14175 27.1236
C 18.4814 4.3789 25.9798
C 19.6722 4.49335 25.2719
C 20.6583 5.37065 25.7079
C 20.4536 6.1335 26.8517
C 19.2628 6.01905 27.5595
H 17.7152 3.69726 25.641
H 19.8312 3.90063 24.3832
H 21.5835 5.45958 25.1579
H 21.2197 6.81515 27.1904
H 19.1037 6.61177 28.4482
H 17.0262 5.63497 28.7896
H 14.9202 5.48563 27.5778
H 15.7776 4.89318 26.1304
C 16.2865 7.84677 27.7409
C 15.3561 7.88213 28.773
C 15.5836 8.68229 29.8866
C 16.7414 9.44708 29.9681
C 17.6718 9.41172 28.936
C 17.4443 8.61157 27.8223
H 14.4565 7.28791 28.7097
H 14.8607 8.70976 30.6886
H 16.9182 10.0688 30.8333
H 18.5714 10.0059 28.9992
H 18.1672 8.58409 27.0204
H 16.9071 7.0068 25.8722
H 14.007 7.64015 26.4663
H 14.5788 6.84773 24.9743
C 16.1917 8.76747 24.1118
C 15.9533 8.06037 22.939
C 16.9623 7.9233 21.9928
C 18.2096 8.49333 22.2194
C 18.448 9.20044 23.3921
C 17.439 9.33751 24.3383
H 14.9842 7.61747 22.763
H 16.7771 7.3739 21.0816
H 18.9936 8.38683 21.4842
H 19.4171 9.64334 23.5681
H 17.6242 9.88691 25.2495
H 15.4174 9.599 25.9261
H 13.0577 9.5639 25.1744
H 13.5928 8.87545 23.6186
C 14.6561 11.7873 25.0186
C 13.8199 12.2364 26.0341
C 14.3323 13.0224 27.0596
C 15.6808 13.3594 27.0696
C 16.517 12.9103 26.0541
C 16.0046 12.1242 25.0286
H 12.7722 11.9746 26.0263
H 13.6826 13.3714 27.8486
H 16.0789 13.9701 27.8665
H 17.5647 13.1721 26.0619
H 16.6543 11.7753 24.2396
H 14.8219 10.8719 23.0905
H 13.0385 12.6699 23.2471
H 12.0384 11.4676 24.1043
C 13.3772 11.3981 20.978
C 13.9906 10.3881 20.2461
C 14.9354 10.7072 19.2778
C 15.2668 12.0363 19.0414
C 14.6533 13.0462 19.7733
C 13.7085 12.7272 20.7417
H 13.7331 9.35547 20.4298
H 15.412 9.92245 18.7091
H 16.0009 12.2842 18.289
H 14.9108 14.0789 19.5897
H 13.2319 13.5119 21.3103
H 12.2653 9.96855 22.1195
H 11.1381 12.6364 21.2611
H 10.3139 11.5682 22.4275
C 10.2416 9.38057 20.8324
C 11.132 8.43842 20.3307
C 11.0198 7.10559 20.7089
C 10.0172 6.71491 21.5889
C 9.12685 7.65707 22.0906
C 9.23906 8.98989 21.7123
H 11.911 8.74196 19.647
H 11.7116 6.37355 20.3191
H 9.93003 5.67933 21.8828
H 8.34787 7.35352 22.7743
H 8.54727 9.72193 22.1021
H 11.0195 10.9122 19.555
H 20.7637 0.678597 31.2052
H 9.37435 11.187 20.1367
C 8.16652 -5.8585 17.4545
C 7.62636 -5.98763 16.0289
C 7.36216 -4.64741 15.3398
C 7.10027 -4.7615 13.8367
C 6.58448 -3.47179 13.1952
C 7.46185 -2.24795 13.466
C 7.15657 -1.05125 12.5629
C 7.87857 0.23508 12.9691
C 7.8143 1.34367 11.9166
C 8.32447 2.6995 12.4089
C 8.1979 3.82348 11.3785
C 6.76067 4.29165 11.1417
C 6.62452 5.35542 10.0505
C 6.84719 4.82475 8.63285
C 6.63162 5.86966 7.53622
C 7.74965 6.9096 7.4391
H 9.10413 -5.30402 17.4155
H 7.43648 -5.30771 18.0476
C 8.6377 -6.75065 15.2073
C 9.66154 -6.07032 14.5584
C 10.5925 -6.77271 13.8021
C 10.4996 -8.15543 13.6946
C 9.47581 -8.83577 14.3434
C 8.54484 -8.13338 15.0998
H 9.7337 -4.99598 14.6419
H 11.388 -6.24411 13.2979
H 11.223 -8.70117 13.1069
H 9.40365 -9.91011 14.2599
H 7.74934 -8.66198 15.6039
H 6.68875 -6.54211 16.068
H 8.23408 -4.01009 15.487
H 6.48849 -4.19077 15.8048
C 6.07046 -5.84375 13.6168
C 6.25056 -6.77921 12.6046
C 5.30258 -7.77545 12.4022
C 4.17451 -7.83623 13.2121
C 3.99441 -6.90077 14.2243
C 4.94239 -5.90453 14.4267
H 7.12704 -6.73198 11.9754
H 5.44251 -8.50228 11.6158
H 3.43796 -8.61029 13.0549
H 3.11793 -6.948 14.8536
H 4.80246 -5.1777 15.2132
H 8.03464 -5.03626 13.3472
H 5.58748 -3.27058 13.5871
H 6.53351 -3.62344 12.117
C 8.90374 -2.64377 13.2554
C 9.29185 -3.24792 12.0652
C 10.6192 -3.61228 11.8713
C 11.5584 -3.37249 12.8675
C 11.1702 -2.76834 14.0577
C 9.84294 -2.40398 14.2516
H 8.56211 -3.43423 11.2911
H 10.9207 -4.08169 10.9466
H 12.5896 -3.65559 12.7169
H 11.9 -2.58203 14.8318
H 9.54139 -1.93457 15.1763
H 7.31062 -1.94181 14.5012
H 6.0831 -0.864777 12.5945
H 7.4573 -1.30516 11.5464
C 7.24604 0.751579 14.2392
C 7.95964 0.724709 15.4317
C 7.37739 1.20016 16.6009
C 6.08154 1.70248 16.5776
C 5.36794 1.72935 15.3851
C 5.95019 1.2539 14.2159
H 8.96649 0.334416 15.4499
H 7.93184 1.17928 17.5275
H 5.62914 2.0719 17.486
H 4.36109 2.11965 15.3669
H 5.39574 1.27478 13.2893
H 8.9266 -0.004058 13.1495
H 6.77562 1.4614 11.6077
H 8.42088 1.03998 11.0634
C 9.78282 2.55267 12.7718
C 10.7067 2.18261 11.8014
C 12.0491 2.04744 12.1356
C 12.4677 2.28233 13.4401
C 11.5439 2.65238 14.4104
C 10.2014 2.78755 14.0763
H 10.3815 2.00011 10.7879
H 12.767 1.75992 11.3816
H 13.5108 2.1773 13.6997
H 11.8691 2.83488 15.424
H 9.48358 3.07507 14.8303
H 7.75072 2.9799 13.2922
H 8.60071 3.46517 10.4312
H 8.78099 4.67512 11.729
C 6.23233 4.86866 12.4332
C 6.68201 6.10696 12.8765
C 6.19567 6.63811 14.0654
C 5.25965 5.93096 14.811
C 4.80997 4.69266 14.3677
C 5.29631 4.16151 13.1788
H 7.40928 6.65639 12.2972
H 6.54506 7.60024 14.4098
H 4.88177 6.34365 15.7347
H 4.0827 4.14322 14.947
H 4.94693 3.19938 12.8344
H 6.16333 3.42711 10.8521
H 7.35986 6.13692 10.2419
H 5.61926 5.77331 10.1046
C 5.88368 3.68622 8.39727
C 6.28581 2.37609 8.62952
C 5.39887 1.32804 8.41267
C 4.1098 1.59012 7.96355
C 3.70767 2.90026 7.7313
C 4.59461 3.94831 7.94816
H 7.2874 2.17246 8.97847
H 5.71132 0.310097 8.59312
H 3.42067 0.775812 7.79506
H 2.70608 3.10389 7.38235
H 4.28216 4.96625 7.7677
H 7.87237 4.46142 8.56143
H 5.69681 6.39151 7.74091
H 6.56326 5.35154 6.57967
C 9.00737 6.21051 6.98138
C 9.26245 6.05724 5.62361
C 10.4202 5.4137 5.20226
C 11.3229 4.92343 6.13869
C 11.0678 5.0767 7.49646
C 9.91005 5.72023 7.91781
H 8.56109 6.43817 4.89602
H 10.6184 5.29462 4.14731
H 12.2225 4.42341 5.81132
H 11.7692 4.69577 8.22405
H 9.71186 5.83932 8.97276
H 7.90485 7.33751 8.4295
H 8.35474 -6.8133 17.9455
H 7.53932 7.72315 6.74484
C 5.90331 0.643025 -3.17627
C 5.22907 1.81933 -2.46731
C 6.17468 2.64182 -1.58968
C 5.58904 3.97664 -1.12475
C 6.54277 4.80909 -0.265487
C 5.98227 6.17265 0.143701
C 7.00068 7.08254 0.833516
C 7.80798 6.39107 1.93399
C 8.71425 7.33465 2.72724
C 9.72062 8.10084 1.8664
C 10.7942 8.83683 2.67051
C 10.2351 9.81157 3.70888
C 11.3013 10.6649 4.39883
C 10.7328 11.7929 5.2622
C 11.7922 12.5731 6.04317
C 12.892 13.1767 5.16744
H 6.69989 1.03624 -3.80789
H 6.32522 -0.016338 -2.41776
C 4.64459 2.73276 -3.51809
C 5.48278 3.39446 -4.40785
C 4.94475 4.2353 -5.37512
C 3.56852 4.41444 -5.45263
C 2.73033 3.75273 -4.56286
C 3.26836 2.91189 -3.59559
H 6.55208 3.25528 -4.34763
H 5.596 4.74943 -6.06645
H 3.15048 5.06775 -6.20417
H 1.66103 3.89192 -4.62308
H 2.6171 2.39777 -2.90426
H 4.43249 1.42612 -1.83569
H 7.07964 2.84676 -2.16165
H 6.42157 2.05147 -0.707276
C 4.34799 3.69157 -0.313203
C 3.10693 4.12368 -0.766149
C 1.9645 3.86126 -0.019093
C 2.06313 3.16674 1.18091
C 3.30419 2.73463 1.63386
C 4.44662 2.99705 0.8868
H 3.0303 4.66331 -1.69853
H 1.00023 4.197 -0.371023
H 1.17549 2.96284 1.76136
H 3.38082 2.195 2.56623
H 5.41089 2.66131 1.23873
H 5.32695 4.56033 -2.0072
H 7.45882 4.97289 -0.833044
H 6.76576 4.24577 0.640629
C 5.48788 6.87311 -1.09929
C 6.37587 7.18056 -2.12352
C 5.92077 7.82535 -3.26774
C 4.57767 8.16269 -3.38772
C 3.68968 7.85523 -2.3635
C 4.14478 7.21044 -1.21928
H 7.41943 6.91846 -2.03029
H 6.61072 8.06424 -4.06354
H 4.22406 8.66367 -4.27675
H 2.64612 8.11733 -2.45672
H 3.45483 6.97156 -0.42348
H 5.15145 6.0083 0.829869
H 6.46366 7.91995 1.279
H 7.69651 7.44971 0.079124
C 6.83974 5.74533 2.89608
C 5.72943 6.45175 3.3436
C 4.83813 5.85733 4.22924
C 5.05714 4.55649 4.66735
C 6.16746 3.85007 4.21983
C 7.05875 4.44449 3.3342
H 5.55926 7.46248 3.0032
H 3.97544 6.4062 4.57695
H 4.36462 4.09464 5.35547
H 6.33763 2.83935 4.56024
H 7.92144 3.89562 2.98648
H 8.43247 5.62728 1.47059
H 9.26874 6.74316 3.45579
H 8.08445 8.05955 3.24296
C 10.4075 7.11525 0.951562
C 10.2337 7.20659 -0.424499
C 10.8659 6.29932 -1.26663
C 11.672 5.3007 -0.7327
C 11.8458 5.20936 0.643362
C 11.2136 6.11663 1.48549
H 9.60735 7.98249 -0.839351
H 10.7309 6.37029 -2.3358
H 12.1633 4.59577 -1.38702
H 12.4722 4.43345 1.05821
H 11.3486 6.04566 2.55466
H 9.17423 8.83503 1.27434
H 11.4165 9.39934 1.97446
H 11.4001 8.09471 3.19036
C 9.26497 10.7372 3.0145
C 9.64889 11.4057 1.85788
C 8.75582 12.2577 1.21869
C 7.47884 12.4412 1.73611
C 7.09492 11.7727 2.89273
C 7.98799 10.9207 3.53193
H 10.6411 11.2631 1.45585
H 9.05412 12.7772 0.320017
H 6.78494 13.1032 1.23947
H 6.10273 11.9153 3.29476
H 7.68969 10.4012 4.4306
H 9.71291 9.23476 4.4722
H 11.9334 11.109 3.62986
H 11.8988 10.0142 5.03735
C 9.76491 11.1893 6.2516
C 8.49409 11.7324 6.40042
C 7.60311 11.1768 7.31119
C 7.98294 10.078 8.07314
C 9.25375 9.53488 7.92432
C 10.1447 10.0905 7.01355
H 8.19898 12.5861 5.8084
H 6.61571 11.5987 7.42682
H 7.29066 9.64628 8.78079
H 9.54887 8.68117 8.51634
H 11.1321 9.66853 6.89792
H 10.207 12.4902 4.60997
H 12.2584 11.8945 6.75748
H 11.2955 13.3845 6.5751
C 12.2794 14.2704 4.32558
C 11.8981 14.0075 3.01501
C 11.3341 15.0143 2.24006
C 11.1515 16.2838 2.77568
C 11.5329 16.5467 4.08625
C 12.0968 15.54 4.8612
H 12.0399 13.0211 2.59884
H 11.0379 14.81 1.22177
H 10.7134 17.0661 2.17355
H 11.391 17.5331 4.50242
H 12.3931 15.7442 5.87949
H 13.2848 12.3907 4.52246
H 5.22964 0.05707 -3.8015
H 13.7224 13.6035 5.72993
C 14.5077 -2.82782 14.1341
C 15.6063 -3.89276 14.1324
C 15.9829 -4.39612 12.7375
C 16.3934 -3.28785 11.7658
C 17.6256 -2.4966 12.2089
C 18.1071 -1.46862 11.183
C 19.4926 -0.892722 11.4823
C 19.9222 0.223092 10.5276
C 21.2261 0.916533 10.9275
C 21.6403 2.05173 9.98906
C 22.889 2.81025 10.4433
C 23.5012 3.70452 9.36324
C 24.6248 4.61133 9.86934
C 24.1508 5.72874 10.8008
C 25.2866 6.49603 11.4805
C 25.9933 5.71054 12.5871
H 14.8553 -1.9779 13.5467
H 13.6172 -3.2553 13.6734
C 15.1248 -5.07017 14.946
C 15.8142 -5.45223 16.0909
C 15.371 -6.53607 16.8399
C 14.2384 -7.23785 16.444
C 13.549 -6.85579 15.2991
C 13.9922 -5.77195 14.5501
H 16.6943 -4.90696 16.3986
H 15.9067 -6.83292 17.7295
H 13.8941 -8.07997 17.0259
H 12.669 -7.40106 14.9914
H 13.4565 -5.4751 13.6605
H 16.4969 -3.46528 14.5931
H 15.1217 -4.91616 12.3182
H 16.8188 -5.08837 12.8386
C 16.6929 -3.91941 10.4274
C 17.8902 -4.59775 10.2314
C 18.166 -5.17912 8.99926
C 17.2445 -5.08215 7.96317
C 16.0472 -4.40381 8.15918
C 15.7714 -3.82244 9.39127
H 18.6062 -4.6731 11.0364
H 19.0963 -5.70618 8.84697
H 17.4587 -5.53386 7.00586
H 15.3312 -4.32846 7.35416
H 14.8411 -3.29538 9.54356
H 15.5589 -2.59349 11.6678
H 18.4364 -3.20171 12.392
H 17.3796 -1.96956 13.1308
C 17.1171 -0.328794 11.1552
C 17.0294 0.542126 12.235
C 16.1181 1.59137 12.2094
C 15.2944 1.76969 11.1041
C 15.382 0.89877 10.0243
C 16.2934 -0.150472 10.0499
H 17.6694 0.403573 13.0939
H 16.05 2.26805 13.0484
H 14.5863 2.58493 11.0842
H 14.742 1.03732 9.16543
H 16.3615 -0.827158 9.21091
H 18.1416 -1.95134 10.2064
H 20.2206 -1.70093 11.4123
H 19.4837 -0.490654 12.4953
C 20.1067 -0.375101 9.15349
C 21.0754 -1.34979 8.94418
C 21.2453 -1.90044 7.67927
C 20.4465 -1.47641 6.62366
C 19.4779 -0.501727 6.83297
C 19.308 0.048928 8.09789
H 21.696 -1.67925 9.76436
H 21.9979 -2.65775 7.51663
H 20.5786 -1.90426 5.64085
H 18.8573 -0.172265 6.01279
H 18.5554 0.806236 8.26052
H 19.1312 0.97262 10.5006
H 22.0213 0.17109 10.9334
H 21.1 1.32967 11.9282
C 20.4965 3.03358 9.90077
C 19.9678 3.37502 8.66144
C 18.9149 4.27885 8.58016
C 18.3907 4.84122 9.73822
C 18.9195 4.49977 10.9775
C 19.9724 3.59595 11.0588
H 20.3751 2.93807 7.76165
H 18.5041 4.54414 7.61723
H 17.5726 5.54347 9.67507
H 18.5122 4.93672 11.8773
H 20.3832 3.33065 12.0218
H 21.8383 1.62632 9.00522
H 23.6394 2.0809 10.7483
H 22.6175 3.4375 11.2923
C 24.0619 2.81802 8.27705
C 25.0505 1.88893 8.57951
C 25.5667 1.07288 7.57963
C 25.0942 1.18592 6.27729
C 24.1056 2.11501 5.97483
C 23.5894 2.93106 6.97471
H 25.4176 1.8011 9.59139
H 26.3348 0.350996 7.81463
H 25.4952 0.551868 5.50041
H 23.7384 2.20284 4.96295
H 22.8212 3.65294 6.73971
H 22.7117 4.335 8.95419
H 25.1092 5.06856 9.00659
H 25.342 3.99569 10.4121
C 23.3379 6.70845 9.98871
C 23.9621 7.78669 9.3724
C 23.2138 8.68854 8.62484
C 21.8413 8.51215 8.49361
C 21.2171 7.4339 9.10992
C 21.9654 6.53205 9.85747
H 25.0285 7.92375 9.47437
H 23.6988 9.52632 8.14598
H 21.2599 9.21286 7.91277
H 20.1507 7.29685 9.00795
H 21.4804 5.69428 10.3363
H 23.5266 5.28491 11.5764
H 24.8714 7.40388 11.9181
H 26.0247 6.75621 10.7219
C 26.9075 6.65635 13.3286
C 28.2848 6.56118 13.1672
C 29.1263 7.43183 13.8498
C 28.5905 8.39765 14.6937
C 27.2132 8.49283 14.8551
C 26.3717 7.62218 14.1725
H 28.7011 5.81075 12.5115
H 30.1965 7.35788 13.7244
H 29.2444 9.07413 15.224
H 26.7969 9.24325 15.5108
H 25.3015 7.69613 14.2979
H 26.5803 4.91852 12.1221
H 14.2394 -2.46922 15.1278
H 25.3158 5.25444 13.309
C 21.9925 27.674 22.1279
C 22.2219 26.1796 22.3625
C 23.4136 25.6049 21.594
C 23.7511 24.1582 21.9604
C 24.2358 23.9778 23.4003
C 24.8188 22.5937 23.6919
C 25.2158 22.381 25.1541
C 25.7153 20.9685 25.4643
C 26.836 20.4878 24.5402
C 27.1767 19.0043 24.6948
C 26.0994 18.0593 24.1588
C 26.3598 16.5826 24.4629
C 25.3606 15.6268 23.8079
C 25.4851 14.1768 24.2801
C 24.6838 13.1784 23.4422
C 24.7095 11.7483 23.9853
H 22.8894 28.21 22.4383
H 21.8193 27.8298 21.0631
C 20.9793 25.4371 21.9325
C 20.3723 24.537 22.8005
C 19.2285 23.8535 22.4047
C 18.6917 24.0702 21.141
C 19.2987 24.9703 20.273
C 20.4426 25.6538 20.6688
H 20.7894 24.3686 23.7824
H 18.7568 23.1541 23.0791
H 17.803 23.5392 20.8334
H 18.8817 25.1387 19.2911
H 20.9142 26.3532 19.9944
H 22.3951 26.0238 23.4273
H 24.2862 26.223 21.8051
H 23.1835 25.6426 20.5292
C 24.8396 23.6767 21.0312
C 26.1418 24.1367 21.1887
C 27.1437 23.6934 20.3333
C 26.8435 22.79 19.3204
C 25.5413 22.33 19.1629
C 24.5393 22.7733 20.0183
H 26.375 24.8385 21.9757
H 28.1555 24.0508 20.4557
H 27.622 22.4456 18.6558
H 25.308 21.6282 18.3759
H 23.5276 22.4159 19.8959
H 22.8547 23.5534 21.8236
H 23.3896 24.1395 24.0682
H 25.008 24.7217 23.5964
C 23.7824 21.5576 23.3278
C 22.495 21.6513 23.8436
C 21.541 20.6976 23.5084
C 21.8743 19.6503 22.6574
C 23.1617 19.5567 22.1416
C 24.1157 20.5103 22.4768
H 22.2361 22.465 24.5047
H 20.5407 20.7703 23.9091
H 21.133 18.9093 22.3969
H 23.4206 18.7429 21.4804
H 25.116 20.4376 22.0761
H 25.7069 22.4602 23.0742
H 24.3435 22.5791 25.777
H 26.011 23.0855 25.3979
C 26.2317 20.9504 26.8831
C 25.5955 20.1737 27.8444
C 26.0709 20.157 29.1505
C 27.1825 20.917 29.4953
C 27.8187 21.6937 28.534
C 27.3433 21.7104 27.2279
H 24.7318 19.5832 27.5765
H 25.5766 19.5535 29.8974
H 27.5519 20.904 30.5101
H 28.6824 22.2842 28.8019
H 27.8376 22.3138 26.481
H 24.8752 20.2806 25.3685
H 27.732 21.0686 24.7596
H 26.5268 20.6615 23.5096
C 28.4592 18.733 23.9453
C 29.5327 18.1376 24.5975
C 30.7133 17.8879 23.9076
C 30.8204 18.2336 22.5655
C 29.747 18.829 21.9134
C 28.5664 19.0787 22.6032
H 29.4494 17.869 25.6402
H 31.5473 17.4253 24.4143
H 31.7377 18.0396 22.0295
H 29.8302 19.0976 20.8706
H 27.7323 19.5414 22.0965
H 27.3176 18.795 25.7552
H 26.0462 18.1808 23.0769
H 25.1465 18.3377 24.6088
C 26.2894 16.3881 25.9587
C 27.4548 16.187 26.689
C 27.39 16.008 28.0659
C 26.1597 16.0302 28.7125
C 24.9943 16.2313 27.9822
C 25.0591 16.4103 26.6053
H 28.4107 16.1698 26.1866
H 28.2955 15.8517 28.6333
H 26.1094 15.8912 29.7823
H 24.0384 16.2486 28.4845
H 24.1536 16.5666 26.0378
H 27.358 16.331 24.1046
H 25.5222 15.6499 22.7302
H 24.3537 15.9754 24.0376
C 26.9416 13.7832 24.22
C 27.568 13.2629 25.3465
C 28.9089 12.9006 25.2911
C 29.6232 13.0585 24.1092
C 28.9968 13.5788 22.9827
C 27.656 13.9411 23.0381
H 27.013 13.1402 26.2648
H 29.3956 12.4964 26.1663
H 30.665 12.777 24.0662
H 29.5518 13.7015 22.0644
H 27.1692 14.3454 22.1628
H 25.13 14.1213 25.3092
H 25.0987 13.1683 22.4342
H 23.647 13.5133 23.4112
C 24.0305 11.7424 25.334
C 24.7169 11.2922 26.4557
C 24.0918 11.2867 27.6972
C 22.7803 11.7314 27.817
C 22.0939 12.1816 26.6953
C 22.719 12.1871 25.4537
H 25.7359 10.9467 26.3626
H 24.6251 10.9369 28.5688
H 22.2946 11.7272 28.7816
H 21.0749 12.5271 26.7883
H 22.1856 12.5368 24.5822
H 25.7502 11.4433 24.0947
H 21.1435 28.0835 22.6754
H 24.2064 11.0224 23.3465
C 16.988 19.3587 -0.191131
C 15.8662 20.3004 -0.633452
C 15.3033 21.1699 0.492645
C 14.0492 21.9558 0.104554
C 13.5074 22.853 1.21908
C 12.4386 23.8448 0.755323
C 11.9561 24.7973 1.85114
C 10.7792 25.6812 1.43348
C 10.2655 26.5993 2.54441
C 8.9813 27.3503 2.18697
C 7.87927 26.4593 1.61027
C 6.51631 27.1461 1.50271
C 5.45545 26.3139 0.779635
C 4.05658 26.9332 0.80241
C 3.56148 27.3008 2.20264
C 2.16685 27.9296 2.22442
H 17.8008 19.9621 0.213094
H 16.5956 18.701 0.58445
C 14.7402 19.4645 -1.19343
C 14.3738 19.5966 -2.52774
C 13.3373 18.8271 -3.04322
C 12.6672 17.9256 -2.22439
C 13.0337 17.7936 -0.890082
C 14.0702 18.5631 -0.374603
H 14.8944 20.297 -3.16396
H 13.0525 18.9297 -4.07995
H 11.8619 17.3278 -2.62491
H 12.5131 17.0932 -0.253869
H 14.3549 18.4605 0.662127
H 16.2585 20.9582 -1.40903
H 16.073 21.8813 0.791919
H 15.0536 20.5214 1.33238
C 14.3852 22.8266 -1.08241
C 15.4118 23.7594 -0.991623
C 15.7211 24.561 -2.08426
C 15.0038 24.4298 -3.26769
C 13.9773 23.497 -3.35847
C 13.668 22.6954 -2.26584
H 15.969 23.8613 -0.072127
H 16.5186 25.2858 -2.01372
H 15.2442 25.0526 -4.11664
H 13.4201 23.395 -4.27797
H 12.8704 21.9706 -2.33638
H 13.2709 21.2433 -0.168939
H 14.34 23.419 1.63688
H 13.0711 22.216 1.9885
C 11.2502 23.0594 0.254398
C 10.8719 23.1469 -1.08028
C 9.77789 22.4239 -1.54139
C 9.06219 21.6135 -0.667833
C 9.44047 21.5261 0.66684
C 10.5345 22.249 1.12796
H 11.428 23.7765 -1.75901
H 9.48398 22.4919 -2.5784
H 8.21218 21.0518 -1.02611
H 8.88438 20.8964 1.34558
H 10.8284 22.1811 2.16497
H 12.8554 24.4412 -0.056233
H 12.7871 25.4449 2.13075
H 11.6475 24.2013 2.71
C 11.2224 26.5427 0.275205
C 12.2772 27.4336 0.435395
C 12.6852 28.2266 -0.630833
C 12.0383 28.1286 -1.85725
C 10.9835 27.2377 -2.01744
C 10.5756 26.4447 -0.951214
H 12.7798 27.5098 1.3883
H 13.5047 28.9189 -0.506369
H 12.3553 28.7448 -2.68569
H 10.4809 27.1615 -2.97034
H 9.75599 25.7524 -1.07568
H 9.96041 25.0337 1.11975
H 11.04 27.3335 2.76598
H 10.0705 25.9906 3.42738
C 8.45223 28.0056 3.44026
C 8.26183 29.382 3.47756
C 7.77481 29.9853 4.63126
C 7.47818 29.2121 5.74765
C 7.66859 27.8357 5.71036
C 8.15561 27.2325 4.55666
H 8.4923 29.9828 2.61014
H 7.62687 31.0547 4.66024
H 7.09978 29.6808 6.64405
H 7.43812 27.235 6.57778
H 8.30355 26.1631 4.52768
H 9.2262 28.1125 1.4472
H 7.7723 25.5876 2.25581
H 8.18253 26.1442 0.611851
C 6.69748 28.441 0.747305
C 7.43119 28.4601 -0.433123
C 7.59796 29.6521 -1.1285
C 7.03103 30.8249 -0.643446
C 6.29733 30.8057 0.536982
C 6.13055 29.6137 1.23236
H 7.87168 27.5489 -0.809999
H 8.16803 29.667 -2.04567
H 7.16061 31.751 -1.18374
H 5.85683 31.7169 0.913858
H 5.56048 29.5988 2.14953
H 6.15829 27.3541 2.51102
H 5.40375 25.3361 1.25852
H 5.7614 26.1998 -0.260305
C 3.08958 25.9394 0.204637
C 2.33192 26.2892 -0.906962
C 1.44177 25.3744 -1.45723
C 1.30928 24.1097 -0.8959
C 2.06694 23.7598 0.215699
C 2.95709 24.6747 0.765967
H 2.43486 27.2719 -1.3431
H 0.853084 25.6462 -2.32092
H 0.617655 23.3989 -1.32345
H 1.964 22.7772 0.651841
H 3.54578 24.4028 1.62966
H 4.07477 27.8399 0.197758
H 4.26363 28.0123 2.63713
H 3.53599 26.3927 2.80506
C 2.15657 29.091 1.2594
C 2.9512 30.2049 1.50399
C 2.94174 31.2739 0.615659
C 2.13765 31.2291 -0.517267
C 1.34301 30.1151 -0.761861
C 1.35247 29.0461 0.126469
H 3.57596 30.2398 2.38425
H 3.55915 32.1394 0.805703
H 2.13029 32.0597 -1.20748
H 0.718249 30.0803 -1.64212
H 0.735062 28.1806 -0.063575
H 1.44763 27.1763 1.90297
H 17.389 18.7393 -0.993384
H 1.86146 28.2971 3.20411
C 31.3252 29.2811 13.9382
C 30.6228 28.1622 13.1666
C 31.1133 27.9962 11.7269
C 30.4703 26.8249 10.9815
C 30.9679 26.653 9.54494
C 30.3985 25.4249 8.8319
C 30.9505 25.2131 7.42073
C 30.4015 23.9698 6.71794
C 31.1231 23.6223 5.4143
C 30.8088 22.2223 4.88314
C 31.4095 21.0903 5.71891
C 31.2582 19.7041 5.08925
C 29.8339 19.3791 4.63463
C 29.6913 18.0109 3.96486
C 28.3324 17.782 3.30033
C 27.14 17.9747 4.23951
H 32.3922 29.06 13.9645
H 31.1556 30.2191 13.4095
C 30.8577 26.8628 13.8991
C 32.1401 26.3328 13.9802
C 32.3564 25.1367 14.6545
C 31.2903 24.4706 15.2477
C 30.0079 25.0007 15.1666
C 29.7916 26.1968 14.4923
H 32.9685 26.8503 13.5193
H 33.3528 24.7249 14.7175
H 31.4584 23.5413 15.7716
H 29.1796 24.4832 15.6275
H 28.7952 26.6086 14.4293
H 29.5557 28.3833 13.1403
H 32.1912 27.8358 11.7498
H 30.8881 28.9127 11.1816
C 28.978 27.052 10.9412
C 28.1211 26.153 11.5653
C 26.7474 26.3621 11.5281
C 26.2306 27.4702 10.8669
C 27.0876 28.3692 10.2428
C 28.4613 28.1601 10.28
H 28.5225 25.292 12.079
H 26.0815 25.6635 12.013
H 25.1633 27.6326 10.8381
H 26.6861 29.2302 9.72909
H 29.1271 28.8586 9.79508
H 30.6895 25.9092 11.5306
H 32.0537 26.5613 9.56842
H 30.6845 27.5393 8.97718
C 30.7282 24.2039 9.65689
C 32.0446 23.9461 10.0214
C 32.3481 22.8222 10.7809
C 31.3352 21.956 11.1757
C 30.0189 22.2138 10.8112
C 29.7154 23.3377 10.0518
H 32.8315 24.6192 9.71461
H 33.3709 22.6219 11.0641
H 31.571 21.0827 11.7658
H 29.2319 21.5407 11.118
H 28.6926 23.538 9.76853
H 29.3171 25.5417 8.76154
H 32.034 25.1162 7.48892
H 30.695 26.0858 6.81969
C 28.9444 24.2094 6.40259
C 27.9621 23.4725 7.05381
C 26.6207 23.6931 6.76353
C 26.2617 24.6505 5.82202
C 27.2441 25.3875 5.1708
C 28.5854 25.1669 5.46108
H 28.241 22.7286 7.78535
H 25.8575 23.1205 7.26952
H 25.2195 24.8219 5.59648
H 26.9651 26.1314 4.43926
H 29.3486 25.7395 4.9551
H 30.4977 23.1231 7.39754
H 32.1968 23.6875 5.59054
H 30.8287 24.3489 4.65697
C 31.3553 22.1153 3.47958
C 32.7203 21.9499 3.27597
C 33.2234 21.8514 1.98394
C 32.3614 21.9182 0.895532
C 30.9964 22.0835 1.09914
C 30.4933 22.1821 2.39117
H 33.39 21.898 4.12164
H 34.284 21.7229 1.82574
H 32.7523 21.8416 -0.108342
H 30.3266 22.1354 0.253471
H 29.4327 22.3105 2.54937
H 29.726 22.0981 4.86808
H 30.912 21.0809 6.68871
H 32.4726 21.2909 5.85146
C 31.6757 18.6728 6.11016
C 32.65 17.7341 5.79145
C 33.0343 16.7847 6.73124
C 32.4442 16.7741 7.98973
C 31.4699 17.7128 8.30844
C 31.0856 18.6621 7.36866
H 33.1085 17.7423 4.81363
H 33.7913 16.0554 6.4836
H 32.7428 16.0365 8.71992
H 31.0114 17.7046 9.28626
H 30.3286 19.3915 7.61629
H 31.9145 19.6502 4.22063
H 29.5205 20.1423 3.92226
H 29.1832 19.4008 5.50882
C 30.7618 17.8884 2.90691
C 31.6021 16.7812 2.89336
C 32.5874 16.6685 1.91948
C 32.7325 17.6628 0.959145
C 31.8922 18.77 0.972689
C 30.9068 18.8828 1.94657
H 31.4893 16.0086 3.63952
H 33.2403 15.8082 1.90896
H 33.4981 17.5752 0.202461
H 32.0049 19.5426 0.226529
H 30.254 19.7431 1.95709
H 29.8337 17.2424 4.72462
H 28.3059 16.7607 2.92023
H 28.2334 18.486 2.47408
C 25.8739 17.8772 3.42253
C 25.1377 16.6982 3.41952
C 23.9722 16.6084 2.66747
C 23.5428 17.6978 1.91842
C 24.2789 18.8768 1.92143
C 25.4445 18.9666 2.67349
H 25.4714 15.8518 4.00151
H 23.4002 15.6923 2.66513
H 22.6372 17.6281 1.33409
H 23.9453 19.7232 1.33944
H 26.0164 19.8827 2.67583
H 27.2149 18.9656 4.68736
H 30.9757 29.3994 14.9639
H 27.0853 17.2402 5.04299
C 27.4754 30.28 22.8156
C 27.7365 31.5969 23.5494
C 29.0477 32.2796 23.155
C 29.017 32.9346 21.7726
C 30.38 33.436 21.2911
C 31.4591 32.3526 21.2402
C 31.1326 31.1928 20.2973
C 32.288 30.2102 20.0959
C 32.8836 29.6744 21.3994
C 33.985 28.6318 21.198
C 34.7658 28.2976 22.4707
C 33.8821 27.9309 23.6647
C 34.662 27.6197 24.9437
C 35.6329 28.7246 25.365
C 36.5257 28.35 26.5496
C 37.4047 29.4966 27.0535
H 27.4448 30.4856 21.7456
H 28.2958 29.5973 23.0369
C 27.7789 31.312 25.0316
C 26.6415 31.5 25.8083
C 26.6805 31.2378 27.1727
C 27.8568 30.7875 27.7606
C 28.9942 30.5996 26.984
C 28.9552 30.8618 25.6195
H 25.7275 31.8498 25.3515
H 25.7968 31.3838 27.7762
H 27.8871 30.5838 28.8208
H 29.9082 30.2498 27.4408
H 29.839 30.7157 25.0161
H 26.9161 32.2796 23.328
H 29.8383 31.5292 23.1597
H 29.2666 33.051 23.8934
C 28.0726 34.1115 21.8277
C 26.9895 34.1747 20.9588
C 26.1201 35.2581 21.0095
C 26.3339 36.2783 21.9291
C 27.417 36.215 22.798
C 28.2863 35.1316 22.7473
H 26.8234 33.3821 20.2442
H 25.2786 35.3073 20.3344
H 25.6584 37.12 21.9686
H 27.583 37.0076 23.5126
H 29.1279 35.0825 23.4224
H 28.6504 32.2005 21.0551
H 30.7149 34.2198 21.9705
H 30.2586 33.8443 20.2878
C 32.7476 32.9898 20.7775
C 32.9206 33.3134 19.4369
C 34.1067 33.9 19.011
C 35.1196 34.163 19.9258
C 34.9465 33.8394 21.2665
C 33.7605 33.2528 21.6924
H 32.1336 33.1091 18.7261
H 34.2411 34.1515 17.9693
H 36.0411 34.6188 19.5949
H 35.7336 34.0437 21.9773
H 33.626 33.0014 22.734
H 31.5865 31.9501 22.2451
H 30.8641 31.6078 19.3258
H 30.2863 30.6444 20.711
C 31.7775 29.0382 19.2923
C 32.2518 28.8194 18.0042
C 31.7819 27.7405 17.2644
C 30.8377 26.8804 17.8128
C 30.3634 27.0991 19.1009
C 30.8333 28.178 19.8407
H 32.9854 29.4877 17.5781
H 32.1504 27.5705 16.2636
H 30.4726 26.0421 17.238
H 29.6298 26.4308 19.527
H 30.4648 28.348 20.8415
H 33.0776 30.7202 19.5441
H 32.0816 29.2164 21.9783
H 33.305 30.5138 21.9526
C 34.9575 29.1633 20.1724
C 35.179 28.4594 18.9944
C 36.0742 28.9486 18.0503
C 36.748 30.1417 18.2842
C 36.5265 30.8456 19.4622
C 35.6313 30.3563 20.4063
H 34.6555 27.5324 18.8127
H 36.2463 28.4018 17.135
H 37.4435 30.5218 17.5506
H 37.05 31.7726 19.6439
H 35.4593 30.9032 21.3216
H 33.5243 27.7153 20.8296
H 35.3636 29.1674 22.7428
H 35.42 27.4521 22.2578
C 33.0716 26.7113 23.2963
C 31.6829 26.7698 23.3092
C 30.9368 25.6471 22.9701
C 31.5794 24.4659 22.6182
C 32.9681 24.4074 22.6053
C 33.7142 25.5301 22.9444
H 31.1836 27.6876 23.5827
H 29.8578 25.6926 22.9801
H 30.9997 23.5936 22.3547
H 33.4674 23.4896 22.3319
H 34.7932 25.4846 22.9344
H 33.2159 28.7696 23.8666
H 35.234 26.7063 24.781
H 33.9462 27.4679 25.7516
C 34.8263 29.9426 25.7472
C 34.8851 31.089 24.9634
C 34.1426 32.2102 25.3152
C 33.3414 32.1849 26.4508
C 33.2826 31.0385 27.2346
C 34.0251 29.9173 26.8827
H 35.5076 31.1087 24.0811
H 34.1882 33.101 24.7063
H 32.7645 33.0561 26.7242
H 32.6601 31.0188 28.1169
H 33.9795 29.0265 27.4917
H 36.2738 28.9582 24.5149
H 37.1761 27.5313 26.2416
H 35.8859 28.0245 27.3699
C 38.4108 29.8291 25.9778
C 38.4692 31.1154 25.4543
C 39.3954 31.4215 24.4641
C 40.2633 30.4412 23.9973
C 40.205 29.1549 24.5207
C 39.2787 28.8488 25.511
H 37.7948 31.8771 25.817
H 39.4407 32.421 24.0574
H 40.9829 30.679 23.2279
H 40.8793 28.3932 24.1581
H 39.2334 27.8493 25.9177
H 36.7658 30.3596 27.2407
H 26.5412 29.7936 23.0966
H 37.948 29.2687 27.9705
C 11.6234 17.9611 25.7324
C 10.1126 17.7236 25.7787
C 9.62454 16.6329 24.8232
C 8.18158 16.1886 25.071
C 7.57723 15.3708 23.9278
C 6.19404 14.7951 24.238
C 5.54564 14.0645 23.0604
C 5.56813 14.8538 21.7499
C 5.07415 16.2957 21.8832
C 4.97035 17.0436 20.5525
C 6.31087 17.2359 19.8405
C 6.21861 18.0529 18.5502
C 7.51647 18.0863 17.7407
C 8.74516 18.503 18.5516
C 9.95445 18.8866 17.6964
C 11.2581 19.0195 18.4862
H 12.1237 17.0288 25.9944
H 11.8923 18.2515 24.7168
C 9.73998 17.3213 27.1856
C 9.82893 15.9898 27.5743
C 9.48591 15.6195 28.8694
C 9.05395 16.5807 29.7758
C 8.965 17.9123 29.3871
C 9.30802 18.2826 28.092
H 10.1646 15.2429 26.8701
H 9.55502 14.5849 29.1715
H 8.78743 16.293 30.7821
H 8.62937 18.6591 30.0913
H 9.23891 19.3172 27.7899
H 9.61231 18.6559 25.5166
H 10.2734 15.7644 24.9365
H 9.69397 17.015 23.8048
C 7.3342 17.4226 25.2692
C 6.47562 17.5084 26.3589
C 5.69558 18.6444 26.5414
C 5.77411 19.6945 25.6341
C 6.63269 19.6086 24.5443
C 7.41273 18.4727 24.3618
H 6.4146 16.6925 27.0639
H 5.02848 18.7111 27.3881
H 5.16804 20.5771 25.7758
H 6.69371 20.4245 23.8393
H 8.07983 18.406 23.5151
H 8.16245 15.5788 25.9742
H 8.25038 14.5422 23.7077
H 7.48993 16.0173 23.0546
C 6.33373 13.8186 25.3813
C 5.5527 13.9671 26.5215
C 5.6813 13.0683 27.5739
C 6.59092 12.0209 27.4862
C 7.37195 11.8724 26.346
C 7.24335 12.7712 25.2935
H 4.84595 14.7809 26.5897
H 5.07446 13.1837 28.4598
H 6.69083 11.3225 28.3039
H 8.0787 11.0586 26.2778
H 7.85019 12.6559 24.4076
H 5.54046 15.6164 24.5319
H 4.50653 13.8583 23.3169
H 6.0801 13.1275 22.9038
C 4.68485 14.1415 20.7536
C 5.25202 13.3334 19.7751
C 4.43893 12.6778 18.858
C 3.05867 12.8302 18.9194
C 2.4915 13.6382 19.8979
C 3.30459 14.2939 20.815
H 6.32444 13.215 19.7274
H 4.8796 12.0499 18.0977
H 2.42692 12.3207 18.2068
H 1.41908 13.7567 19.9455
H 2.86391 14.9218 21.5752
H 6.59423 14.877 21.3829
H 5.76909 16.8366 22.5255
H 4.0857 16.2769 22.3423
C 4.37752 18.4062 20.8208
C 5.15393 19.3986 21.4076
C 4.60822 20.6529 21.6545
C 3.28609 20.9148 21.3146
C 2.50967 19.9224 20.7279
C 3.05538 18.668 20.4809
H 6.1812 19.1952 21.6716
H 5.21148 21.4241 22.1104
H 2.86208 21.8894 21.5065
H 1.4824 20.1258 20.4638
H 2.45213 17.8969 20.025
H 4.31182 16.4778 19.8934
H 6.71071 16.2523 19.594
H 6.98881 17.7496 20.5221
C 5.13719 17.4506 17.6854
C 5.12472 16.0824 17.4404
C 4.12924 15.528 16.6443
C 3.14624 16.3417 16.0933
C 3.15872 17.7099 16.3383
C 4.15419 18.2643 17.1344
H 5.88848 15.4501 17.8685
H 4.11955 14.4649 16.4539
H 2.37278 15.9109 15.4747
H 2.39495 18.3422 15.9102
H 4.16389 19.3274 17.3248
H 5.95354 19.077 18.8128
H 7.39054 18.7958 16.9229
H 7.69444 17.0886 17.3396
C 8.36975 19.6937 19.401
C 8.53011 19.6414 20.7807
C 8.18453 20.7375 21.5626
C 7.67858 21.8858 20.9647
C 7.51822 21.9381 19.5849
C 7.8638 20.842 18.8031
H 8.92322 18.7492 21.2453
H 8.30913 20.6969 22.6346
H 7.41007 22.7375 21.5722
H 7.12511 22.8303 19.1204
H 7.7392 20.8826 17.7311
H 9.03075 17.6683 19.1919
H 9.74522 19.844 17.2192
H 10.0927 18.1177 16.9363
C 12.2714 19.7189 17.612
C 12.9276 20.852 18.0786
C 13.8603 21.4958 17.2739
C 14.1369 21.0066 16.0026
C 13.4807 19.8736 15.5359
C 12.548 19.2297 16.3406
H 12.7127 21.2321 19.0664
H 14.3702 22.3762 17.6365
H 14.8616 21.5069 15.3773
H 13.6956 19.4935 14.5481
H 12.0381 18.3494 15.9781
H 11.0597 19.6199 19.374
H 11.9711 18.7382 26.4131
H 11.6821 18.0675 18.8055
C 17.8617 13.4817 17.2356
C 17.9859 15.0063 17.2681
C 19.429 15.5138 17.2379
C 20.2074 15.2535 18.5291
C 21.6059 15.8737 18.5484
C 22.4751 15.4862 17.3504
C 23.889 16.0692 17.3928
C 23.9518 17.5708 17.1066
C 23.6458 17.9408 15.6539
C 23.4142 19.4362 15.4281
C 23.1909 19.8171 13.9632
C 22.7705 21.2736 13.756
C 23.6498 22.2859 14.493
C 23.3909 23.7406 14.0956
C 24.2845 24.7513 14.8174
C 24.1827 26.1756 14.2681
H 18.3316 13.1203 16.3209
H 18.3838 13.078 18.1031
C 17.2627 15.5655 16.0663
C 17.8727 15.5472 14.8174
C 17.2069 16.0619 13.7111
C 15.9311 16.595 13.8537
C 15.3211 16.6133 15.1026
C 15.9869 16.0985 16.2089
H 18.8639 15.133 14.7066
H 17.6808 16.0477 12.7408
H 15.4138 16.9949 12.9942
H 14.3298 17.0274 15.2134
H 15.5129 16.1127 17.1792
H 17.516 15.3677 18.1828
H 19.409 16.5894 17.0622
H 19.949 15.0158 16.4195
C 19.4188 15.8293 19.6809
C 19.3113 17.2071 19.8297
C 18.5853 17.7371 20.89
C 17.9669 16.8893 21.8015
C 18.0745 15.5115 21.6528
C 18.8004 14.9815 20.5925
H 19.7917 17.8659 19.1215
H 18.5018 18.8077 21.0056
H 17.4029 17.3011 22.6253
H 17.594 14.8527 22.361
H 18.8839 13.9109 20.4769
H 20.3101 14.1756 18.6544
H 22.1117 15.547 19.457
H 21.4984 16.9583 18.5555
C 22.5852 13.9806 17.3132
C 22.2731 13.2895 16.1484
C 22.3745 11.9036 16.1142
C 22.788 11.2089 17.2449
C 23.1001 11.9001 18.4098
C 22.9987 13.2859 18.444
H 21.9518 13.8292 15.2698
H 22.132 11.3666 15.2091
H 22.8668 10.1321 17.2183
H 23.4214 11.3603 19.2883
H 23.2412 13.823 19.349
H 21.9858 15.8429 16.444
H 24.4934 15.5538 16.6463
H 24.301 15.8935 18.3866
C 25.3429 18.0572 17.4356
C 26.4224 17.653 16.6587
C 27.703 18.1007 16.9616
C 27.9041 18.9527 18.0413
C 26.8247 19.357 18.8181
C 25.5441 18.9092 18.5153
H 26.2661 16.991 15.8198
H 28.5417 17.7866 16.358
H 28.8991 19.3006 18.2765
H 26.981 20.019 19.657
H 24.7054 19.2233 19.1189
H 23.225 18.0711 17.7466
H 22.7469 17.406 15.3475
H 24.4889 17.629 15.0374
C 22.1941 19.85 16.2157
C 20.9233 19.5767 15.7231
C 19.8002 19.9576 16.4481
C 19.9478 20.6118 17.6656
C 21.2186 20.8851 18.1582
C 22.3417 20.5042 17.4332
H 20.8086 19.0685 14.7771
H 18.8128 19.7453 16.0654
H 19.0752 20.9078 18.2289
H 21.3333 21.3933 19.1041
H 23.329 20.7165 17.8159
H 24.2886 19.9759 15.7917
H 22.4082 19.1751 13.559
H 24.1217 19.6501 13.4213
C 22.8345 21.5788 12.2786
C 24.0666 21.713 11.6494
C 24.1256 21.9939 10.2893
C 22.9523 22.1405 9.55849
C 21.7202 22.0063 10.1877
C 21.6613 21.7254 11.5477
H 24.9782 21.5991 12.2172
H 25.0829 22.0983 9.80045
H 22.9981 22.3588 8.50176
H 20.8086 22.1202 9.61985
H 20.7039 21.621 12.0366
H 21.7467 21.3875 14.1124
H 24.6926 22.0534 14.277
H 23.4631 22.1857 15.5622
C 21.952 24.069 14.4144
C 21.0953 24.4913 13.4046
C 19.7707 24.7937 13.6981
C 19.3029 24.6738 15.0015
C 20.1595 24.2516 16.0113
C 21.4841 23.9492 15.7178
H 21.4589 24.5845 12.3919
H 19.1051 25.1218 12.9134
H 18.2737 24.9088 15.2295
H 19.796 24.1584 17.024
H 22.1498 23.6211 16.5025
H 23.5628 23.8374 13.0236
H 25.3191 24.4217 14.7218
H 23.9987 24.7697 15.8691
C 24.9676 27.0905 15.1775
C 26.3539 27.0014 15.2245
C 27.0765 27.8435 16.0616
C 26.4127 28.7748 16.8518
C 25.0264 28.8638 16.8047
C 24.3038 28.0217 15.9676
H 26.8697 26.2778 14.6106
H 28.1537 27.7743 16.0982
H 26.9741 29.4291 17.5022
H 24.5106 29.5874 17.4186
H 23.2266 28.0909 15.9311
H 23.1324 26.4673 14.2683
H 16.8336 13.1201 17.2571
H 24.5681 26.2886 13.2548
